p cnf 1431 51244
-1 -2 3 0
1 2 -3 0
-1 -4 5 0
1 4 -5 0
-1 -6 7 0
1 6 -7 0
-1 -8 9 0
1 8 -9 0
-1 -10 11 0
1 10 -11 0
-1 -12 13 0
1 12 -13 0
-1 -14 15 0
1 14 -15 0
-1 -16 17 0
1 16 -17 0
-1 -18 19 0
1 18 -19 0
-1 -20 21 0
1 20 -21 0
-1 -22 23 0
1 22 -23 0
-1 -24 25 0
1 24 -25 0
-1 -26 27 0
1 26 -27 0
-1 -28 29 0
1 28 -29 0
-1 -30 31 0
1 30 -31 0
-1 -32 33 0
1 32 -33 0
-1 -34 35 0
1 34 -35 0
-1 -36 37 0
1 36 -37 0
-1 -38 39 0
1 38 -39 0
-1 -40 41 0
1 40 -41 0
-1 -42 43 0
1 42 -43 0
-1 -44 45 0
1 44 -45 0
-1 -46 47 0
1 46 -47 0
-1 -48 49 0
1 48 -49 0
-1 -50 51 0
1 50 -51 0
-1 -52 53 0
1 52 -53 0
-1 -54 55 0
1 54 -55 0
-1 -56 57 0
1 56 -57 0
-1 -58 59 0
1 58 -59 0
-1 -60 61 0
1 60 -61 0
-1 -62 63 0
1 62 -63 0
-1 -64 65 0
1 64 -65 0
-1 -66 67 0
1 66 -67 0
-1 -68 69 0
1 68 -69 0
-1 -70 71 0
1 70 -71 0
-1 -72 73 0
1 72 -73 0
-1 -74 75 0
1 74 -75 0
-1 -76 77 0
1 76 -77 0
-1 -78 79 0
1 78 -79 0
-1 -80 81 0
1 80 -81 0
-1 -82 83 0
1 82 -83 0
-1 -84 85 0
1 84 -85 0
-1 -86 87 0
1 86 -87 0
-1 -88 89 0
1 88 -89 0
-1 -90 91 0
1 90 -91 0
-1 -92 93 0
1 92 -93 0
-1 -94 95 0
1 94 -95 0
-1 -96 97 0
1 96 -97 0
-1 -98 99 0
1 98 -99 0
-1 -100 101 0
1 100 -101 0
-1 -102 103 0
1 102 -103 0
-1 -104 105 0
1 104 -105 0
-3 -106 5 0
3 106 -5 0
-3 -107 7 0
3 107 -7 0
-3 -108 9 0
3 108 -9 0
-3 -109 11 0
3 109 -11 0
-3 -110 13 0
3 110 -13 0
-3 -111 15 0
3 111 -15 0
-3 -112 17 0
3 112 -17 0
-3 -113 19 0
3 113 -19 0
-3 -114 21 0
3 114 -21 0
-3 -115 23 0
3 115 -23 0
-3 -116 25 0
3 116 -25 0
-3 -117 27 0
3 117 -27 0
-3 -118 29 0
3 118 -29 0
-3 -119 31 0
3 119 -31 0
-3 -120 33 0
3 120 -33 0
-3 -121 35 0
3 121 -35 0
-3 -122 37 0
3 122 -37 0
-3 -123 39 0
3 123 -39 0
-3 -124 41 0
3 124 -41 0
-3 -125 43 0
3 125 -43 0
-3 -126 45 0
3 126 -45 0
-3 -127 47 0
3 127 -47 0
-3 -128 49 0
3 128 -49 0
-3 -129 51 0
3 129 -51 0
-3 -130 53 0
3 130 -53 0
-3 -131 55 0
3 131 -55 0
-3 -132 57 0
3 132 -57 0
-3 -133 59 0
3 133 -59 0
-3 -134 61 0
3 134 -61 0
-3 -135 63 0
3 135 -63 0
-3 -136 65 0
3 136 -65 0
-3 -137 67 0
3 137 -67 0
-3 -138 69 0
3 138 -69 0
-3 -139 71 0
3 139 -71 0
-3 -140 73 0
3 140 -73 0
-3 -141 75 0
3 141 -75 0
-3 -142 77 0
3 142 -77 0
-3 -143 79 0
3 143 -79 0
-3 -144 81 0
3 144 -81 0
-3 -145 83 0
3 145 -83 0
-3 -146 85 0
3 146 -85 0
-3 -147 87 0
3 147 -87 0
-3 -148 89 0
3 148 -89 0
-3 -149 91 0
3 149 -91 0
-3 -150 93 0
3 150 -93 0
-3 -151 95 0
3 151 -95 0
-3 -152 97 0
3 152 -97 0
-3 -153 99 0
3 153 -99 0
-3 -154 101 0
3 154 -101 0
-3 -155 103 0
3 155 -103 0
-3 -156 105 0
3 156 -105 0
-5 -157 7 0
5 157 -7 0
-5 -158 9 0
5 158 -9 0
-5 -159 11 0
5 159 -11 0
-5 -160 13 0
5 160 -13 0
-5 -161 15 0
5 161 -15 0
-5 -162 17 0
5 162 -17 0
-5 -163 19 0
5 163 -19 0
-5 -164 21 0
5 164 -21 0
-5 -165 23 0
5 165 -23 0
-5 -166 25 0
5 166 -25 0
-5 -167 27 0
5 167 -27 0
-5 -168 29 0
5 168 -29 0
-5 -169 31 0
5 169 -31 0
-5 -170 33 0
5 170 -33 0
-5 -171 35 0
5 171 -35 0
-5 -172 37 0
5 172 -37 0
-5 -173 39 0
5 173 -39 0
-5 -174 41 0
5 174 -41 0
-5 -175 43 0
5 175 -43 0
-5 -176 45 0
5 176 -45 0
-5 -177 47 0
5 177 -47 0
-5 -178 49 0
5 178 -49 0
-5 -179 51 0
5 179 -51 0
-5 -180 53 0
5 180 -53 0
-5 -181 55 0
5 181 -55 0
-5 -182 57 0
5 182 -57 0
-5 -183 59 0
5 183 -59 0
-5 -184 61 0
5 184 -61 0
-5 -185 63 0
5 185 -63 0
-5 -186 65 0
5 186 -65 0
-5 -187 67 0
5 187 -67 0
-5 -188 69 0
5 188 -69 0
-5 -189 71 0
5 189 -71 0
-5 -190 73 0
5 190 -73 0
-5 -191 75 0
5 191 -75 0
-5 -192 77 0
5 192 -77 0
-5 -193 79 0
5 193 -79 0
-5 -194 81 0
5 194 -81 0
-5 -195 83 0
5 195 -83 0
-5 -196 85 0
5 196 -85 0
-5 -197 87 0
5 197 -87 0
-5 -198 89 0
5 198 -89 0
-5 -199 91 0
5 199 -91 0
-5 -200 93 0
5 200 -93 0
-5 -201 95 0
5 201 -95 0
-5 -202 97 0
5 202 -97 0
-5 -203 99 0
5 203 -99 0
-5 -204 101 0
5 204 -101 0
-5 -205 103 0
5 205 -103 0
-5 -206 105 0
5 206 -105 0
-7 -207 9 0
7 207 -9 0
-7 -208 11 0
7 208 -11 0
-7 -209 13 0
7 209 -13 0
-7 -210 15 0
7 210 -15 0
-7 -211 17 0
7 211 -17 0
-7 -212 19 0
7 212 -19 0
-7 -213 21 0
7 213 -21 0
-7 -214 23 0
7 214 -23 0
-7 -215 25 0
7 215 -25 0
-7 -216 27 0
7 216 -27 0
-7 -217 29 0
7 217 -29 0
-7 -218 31 0
7 218 -31 0
-7 -219 33 0
7 219 -33 0
-7 -220 35 0
7 220 -35 0
-7 -221 37 0
7 221 -37 0
-7 -222 39 0
7 222 -39 0
-7 -223 41 0
7 223 -41 0
-7 -224 43 0
7 224 -43 0
-7 -225 45 0
7 225 -45 0
-7 -226 47 0
7 226 -47 0
-7 -227 49 0
7 227 -49 0
-7 -228 51 0
7 228 -51 0
-7 -229 53 0
7 229 -53 0
-7 -230 55 0
7 230 -55 0
-7 -231 57 0
7 231 -57 0
-7 -232 59 0
7 232 -59 0
-7 -233 61 0
7 233 -61 0
-7 -234 63 0
7 234 -63 0
-7 -235 65 0
7 235 -65 0
-7 -236 67 0
7 236 -67 0
-7 -237 69 0
7 237 -69 0
-7 -238 71 0
7 238 -71 0
-7 -239 73 0
7 239 -73 0
-7 -240 75 0
7 240 -75 0
-7 -241 77 0
7 241 -77 0
-7 -242 79 0
7 242 -79 0
-7 -243 81 0
7 243 -81 0
-7 -244 83 0
7 244 -83 0
-7 -245 85 0
7 245 -85 0
-7 -246 87 0
7 246 -87 0
-7 -247 89 0
7 247 -89 0
-7 -248 91 0
7 248 -91 0
-7 -249 93 0
7 249 -93 0
-7 -250 95 0
7 250 -95 0
-7 -251 97 0
7 251 -97 0
-7 -252 99 0
7 252 -99 0
-7 -253 101 0
7 253 -101 0
-7 -254 103 0
7 254 -103 0
-7 -255 105 0
7 255 -105 0
-9 -256 11 0
9 256 -11 0
-9 -257 13 0
9 257 -13 0
-9 -258 15 0
9 258 -15 0
-9 -259 17 0
9 259 -17 0
-9 -260 19 0
9 260 -19 0
-9 -261 21 0
9 261 -21 0
-9 -262 23 0
9 262 -23 0
-9 -263 25 0
9 263 -25 0
-9 -264 27 0
9 264 -27 0
-9 -265 29 0
9 265 -29 0
-9 -266 31 0
9 266 -31 0
-9 -267 33 0
9 267 -33 0
-9 -268 35 0
9 268 -35 0
-9 -269 37 0
9 269 -37 0
-9 -270 39 0
9 270 -39 0
-9 -271 41 0
9 271 -41 0
-9 -272 43 0
9 272 -43 0
-9 -273 45 0
9 273 -45 0
-9 -274 47 0
9 274 -47 0
-9 -275 49 0
9 275 -49 0
-9 -276 51 0
9 276 -51 0
-9 -277 53 0
9 277 -53 0
-9 -278 55 0
9 278 -55 0
-9 -279 57 0
9 279 -57 0
-9 -280 59 0
9 280 -59 0
-9 -281 61 0
9 281 -61 0
-9 -282 63 0
9 282 -63 0
-9 -283 65 0
9 283 -65 0
-9 -284 67 0
9 284 -67 0
-9 -285 69 0
9 285 -69 0
-9 -286 71 0
9 286 -71 0
-9 -287 73 0
9 287 -73 0
-9 -288 75 0
9 288 -75 0
-9 -289 77 0
9 289 -77 0
-9 -290 79 0
9 290 -79 0
-9 -291 81 0
9 291 -81 0
-9 -292 83 0
9 292 -83 0
-9 -293 85 0
9 293 -85 0
-9 -294 87 0
9 294 -87 0
-9 -295 89 0
9 295 -89 0
-9 -296 91 0
9 296 -91 0
-9 -297 93 0
9 297 -93 0
-9 -298 95 0
9 298 -95 0
-9 -299 97 0
9 299 -97 0
-9 -300 99 0
9 300 -99 0
-9 -301 101 0
9 301 -101 0
-9 -302 103 0
9 302 -103 0
-9 -303 105 0
9 303 -105 0
-11 -304 13 0
11 304 -13 0
-11 -305 15 0
11 305 -15 0
-11 -306 17 0
11 306 -17 0
-11 -307 19 0
11 307 -19 0
-11 -308 21 0
11 308 -21 0
-11 -309 23 0
11 309 -23 0
-11 -310 25 0
11 310 -25 0
-11 -311 27 0
11 311 -27 0
-11 -312 29 0
11 312 -29 0
-11 -313 31 0
11 313 -31 0
-11 -314 33 0
11 314 -33 0
-11 -315 35 0
11 315 -35 0
-11 -316 37 0
11 316 -37 0
-11 -317 39 0
11 317 -39 0
-11 -318 41 0
11 318 -41 0
-11 -319 43 0
11 319 -43 0
-11 -320 45 0
11 320 -45 0
-11 -321 47 0
11 321 -47 0
-11 -322 49 0
11 322 -49 0
-11 -323 51 0
11 323 -51 0
-11 -324 53 0
11 324 -53 0
-11 -325 55 0
11 325 -55 0
-11 -326 57 0
11 326 -57 0
-11 -327 59 0
11 327 -59 0
-11 -328 61 0
11 328 -61 0
-11 -329 63 0
11 329 -63 0
-11 -330 65 0
11 330 -65 0
-11 -331 67 0
11 331 -67 0
-11 -332 69 0
11 332 -69 0
-11 -333 71 0
11 333 -71 0
-11 -334 73 0
11 334 -73 0
-11 -335 75 0
11 335 -75 0
-11 -336 77 0
11 336 -77 0
-11 -337 79 0
11 337 -79 0
-11 -338 81 0
11 338 -81 0
-11 -339 83 0
11 339 -83 0
-11 -340 85 0
11 340 -85 0
-11 -341 87 0
11 341 -87 0
-11 -342 89 0
11 342 -89 0
-11 -343 91 0
11 343 -91 0
-11 -344 93 0
11 344 -93 0
-11 -345 95 0
11 345 -95 0
-11 -346 97 0
11 346 -97 0
-11 -347 99 0
11 347 -99 0
-11 -348 101 0
11 348 -101 0
-11 -349 103 0
11 349 -103 0
-11 -350 105 0
11 350 -105 0
-13 -351 15 0
13 351 -15 0
-13 -352 17 0
13 352 -17 0
-13 -353 19 0
13 353 -19 0
-13 -354 21 0
13 354 -21 0
-13 -355 23 0
13 355 -23 0
-13 -356 25 0
13 356 -25 0
-13 -357 27 0
13 357 -27 0
-13 -358 29 0
13 358 -29 0
-13 -359 31 0
13 359 -31 0
-13 -360 33 0
13 360 -33 0
-13 -361 35 0
13 361 -35 0
-13 -362 37 0
13 362 -37 0
-13 -363 39 0
13 363 -39 0
-13 -364 41 0
13 364 -41 0
-13 -365 43 0
13 365 -43 0
-13 -366 45 0
13 366 -45 0
-13 -367 47 0
13 367 -47 0
-13 -368 49 0
13 368 -49 0
-13 -369 51 0
13 369 -51 0
-13 -370 53 0
13 370 -53 0
-13 -371 55 0
13 371 -55 0
-13 -372 57 0
13 372 -57 0
-13 -373 59 0
13 373 -59 0
-13 -374 61 0
13 374 -61 0
-13 -375 63 0
13 375 -63 0
-13 -376 65 0
13 376 -65 0
-13 -377 67 0
13 377 -67 0
-13 -378 69 0
13 378 -69 0
-13 -379 71 0
13 379 -71 0
-13 -380 73 0
13 380 -73 0
-13 -381 75 0
13 381 -75 0
-13 -382 77 0
13 382 -77 0
-13 -383 79 0
13 383 -79 0
-13 -384 81 0
13 384 -81 0
-13 -385 83 0
13 385 -83 0
-13 -386 85 0
13 386 -85 0
-13 -387 87 0
13 387 -87 0
-13 -388 89 0
13 388 -89 0
-13 -389 91 0
13 389 -91 0
-13 -390 93 0
13 390 -93 0
-13 -391 95 0
13 391 -95 0
-13 -392 97 0
13 392 -97 0
-13 -393 99 0
13 393 -99 0
-13 -394 101 0
13 394 -101 0
-13 -395 103 0
13 395 -103 0
-13 -396 105 0
13 396 -105 0
-15 -397 17 0
15 397 -17 0
-15 -398 19 0
15 398 -19 0
-15 -399 21 0
15 399 -21 0
-15 -400 23 0
15 400 -23 0
-15 -401 25 0
15 401 -25 0
-15 -402 27 0
15 402 -27 0
-15 -403 29 0
15 403 -29 0
-15 -404 31 0
15 404 -31 0
-15 -405 33 0
15 405 -33 0
-15 -406 35 0
15 406 -35 0
-15 -407 37 0
15 407 -37 0
-15 -408 39 0
15 408 -39 0
-15 -409 41 0
15 409 -41 0
-15 -410 43 0
15 410 -43 0
-15 -411 45 0
15 411 -45 0
-15 -412 47 0
15 412 -47 0
-15 -413 49 0
15 413 -49 0
-15 -414 51 0
15 414 -51 0
-15 -415 53 0
15 415 -53 0
-15 -416 55 0
15 416 -55 0
-15 -417 57 0
15 417 -57 0
-15 -418 59 0
15 418 -59 0
-15 -419 61 0
15 419 -61 0
-15 -420 63 0
15 420 -63 0
-15 -421 65 0
15 421 -65 0
-15 -422 67 0
15 422 -67 0
-15 -423 69 0
15 423 -69 0
-15 -424 71 0
15 424 -71 0
-15 -425 73 0
15 425 -73 0
-15 -426 75 0
15 426 -75 0
-15 -427 77 0
15 427 -77 0
-15 -428 79 0
15 428 -79 0
-15 -429 81 0
15 429 -81 0
-15 -430 83 0
15 430 -83 0
-15 -431 85 0
15 431 -85 0
-15 -432 87 0
15 432 -87 0
-15 -433 89 0
15 433 -89 0
-15 -434 91 0
15 434 -91 0
-15 -435 93 0
15 435 -93 0
-15 -436 95 0
15 436 -95 0
-15 -437 97 0
15 437 -97 0
-15 -438 99 0
15 438 -99 0
-15 -439 101 0
15 439 -101 0
-15 -440 103 0
15 440 -103 0
-15 -441 105 0
15 441 -105 0
-17 -442 19 0
17 442 -19 0
-17 -443 21 0
17 443 -21 0
-17 -444 23 0
17 444 -23 0
-17 -445 25 0
17 445 -25 0
-17 -446 27 0
17 446 -27 0
-17 -447 29 0
17 447 -29 0
-17 -448 31 0
17 448 -31 0
-17 -449 33 0
17 449 -33 0
-17 -450 35 0
17 450 -35 0
-17 -451 37 0
17 451 -37 0
-17 -452 39 0
17 452 -39 0
-17 -453 41 0
17 453 -41 0
-17 -454 43 0
17 454 -43 0
-17 -455 45 0
17 455 -45 0
-17 -456 47 0
17 456 -47 0
-17 -457 49 0
17 457 -49 0
-17 -458 51 0
17 458 -51 0
-17 -459 53 0
17 459 -53 0
-17 -460 55 0
17 460 -55 0
-17 -461 57 0
17 461 -57 0
-17 -462 59 0
17 462 -59 0
-17 -463 61 0
17 463 -61 0
-17 -464 63 0
17 464 -63 0
-17 -465 65 0
17 465 -65 0
-17 -466 67 0
17 466 -67 0
-17 -467 69 0
17 467 -69 0
-17 -468 71 0
17 468 -71 0
-17 -469 73 0
17 469 -73 0
-17 -470 75 0
17 470 -75 0
-17 -471 77 0
17 471 -77 0
-17 -472 79 0
17 472 -79 0
-17 -473 81 0
17 473 -81 0
-17 -474 83 0
17 474 -83 0
-17 -475 85 0
17 475 -85 0
-17 -476 87 0
17 476 -87 0
-17 -477 89 0
17 477 -89 0
-17 -478 91 0
17 478 -91 0
-17 -479 93 0
17 479 -93 0
-17 -480 95 0
17 480 -95 0
-17 -481 97 0
17 481 -97 0
-17 -482 99 0
17 482 -99 0
-17 -483 101 0
17 483 -101 0
-17 -484 103 0
17 484 -103 0
-17 -485 105 0
17 485 -105 0
-19 -486 21 0
19 486 -21 0
-19 -487 23 0
19 487 -23 0
-19 -488 25 0
19 488 -25 0
-19 -489 27 0
19 489 -27 0
-19 -490 29 0
19 490 -29 0
-19 -491 31 0
19 491 -31 0
-19 -492 33 0
19 492 -33 0
-19 -493 35 0
19 493 -35 0
-19 -494 37 0
19 494 -37 0
-19 -495 39 0
19 495 -39 0
-19 -496 41 0
19 496 -41 0
-19 -497 43 0
19 497 -43 0
-19 -498 45 0
19 498 -45 0
-19 -499 47 0
19 499 -47 0
-19 -500 49 0
19 500 -49 0
-19 -501 51 0
19 501 -51 0
-19 -502 53 0
19 502 -53 0
-19 -503 55 0
19 503 -55 0
-19 -504 57 0
19 504 -57 0
-19 -505 59 0
19 505 -59 0
-19 -506 61 0
19 506 -61 0
-19 -507 63 0
19 507 -63 0
-19 -508 65 0
19 508 -65 0
-19 -509 67 0
19 509 -67 0
-19 -510 69 0
19 510 -69 0
-19 -511 71 0
19 511 -71 0
-19 -512 73 0
19 512 -73 0
-19 -513 75 0
19 513 -75 0
-19 -514 77 0
19 514 -77 0
-19 -515 79 0
19 515 -79 0
-19 -516 81 0
19 516 -81 0
-19 -517 83 0
19 517 -83 0
-19 -518 85 0
19 518 -85 0
-19 -519 87 0
19 519 -87 0
-19 -520 89 0
19 520 -89 0
-19 -521 91 0
19 521 -91 0
-19 -522 93 0
19 522 -93 0
-19 -523 95 0
19 523 -95 0
-19 -524 97 0
19 524 -97 0
-19 -525 99 0
19 525 -99 0
-19 -526 101 0
19 526 -101 0
-19 -527 103 0
19 527 -103 0
-19 -528 105 0
19 528 -105 0
-21 -529 23 0
21 529 -23 0
-21 -530 25 0
21 530 -25 0
-21 -531 27 0
21 531 -27 0
-21 -532 29 0
21 532 -29 0
-21 -533 31 0
21 533 -31 0
-21 -534 33 0
21 534 -33 0
-21 -535 35 0
21 535 -35 0
-21 -536 37 0
21 536 -37 0
-21 -537 39 0
21 537 -39 0
-21 -538 41 0
21 538 -41 0
-21 -539 43 0
21 539 -43 0
-21 -540 45 0
21 540 -45 0
-21 -541 47 0
21 541 -47 0
-21 -542 49 0
21 542 -49 0
-21 -543 51 0
21 543 -51 0
-21 -544 53 0
21 544 -53 0
-21 -545 55 0
21 545 -55 0
-21 -546 57 0
21 546 -57 0
-21 -547 59 0
21 547 -59 0
-21 -548 61 0
21 548 -61 0
-21 -549 63 0
21 549 -63 0
-21 -550 65 0
21 550 -65 0
-21 -551 67 0
21 551 -67 0
-21 -552 69 0
21 552 -69 0
-21 -553 71 0
21 553 -71 0
-21 -554 73 0
21 554 -73 0
-21 -555 75 0
21 555 -75 0
-21 -556 77 0
21 556 -77 0
-21 -557 79 0
21 557 -79 0
-21 -558 81 0
21 558 -81 0
-21 -559 83 0
21 559 -83 0
-21 -560 85 0
21 560 -85 0
-21 -561 87 0
21 561 -87 0
-21 -562 89 0
21 562 -89 0
-21 -563 91 0
21 563 -91 0
-21 -564 93 0
21 564 -93 0
-21 -565 95 0
21 565 -95 0
-21 -566 97 0
21 566 -97 0
-21 -567 99 0
21 567 -99 0
-21 -568 101 0
21 568 -101 0
-21 -569 103 0
21 569 -103 0
-21 -570 105 0
21 570 -105 0
-23 -571 25 0
23 571 -25 0
-23 -572 27 0
23 572 -27 0
-23 -573 29 0
23 573 -29 0
-23 -574 31 0
23 574 -31 0
-23 -575 33 0
23 575 -33 0
-23 -576 35 0
23 576 -35 0
-23 -577 37 0
23 577 -37 0
-23 -578 39 0
23 578 -39 0
-23 -579 41 0
23 579 -41 0
-23 -580 43 0
23 580 -43 0
-23 -581 45 0
23 581 -45 0
-23 -582 47 0
23 582 -47 0
-23 -583 49 0
23 583 -49 0
-23 -584 51 0
23 584 -51 0
-23 -585 53 0
23 585 -53 0
-23 -586 55 0
23 586 -55 0
-23 -587 57 0
23 587 -57 0
-23 -588 59 0
23 588 -59 0
-23 -589 61 0
23 589 -61 0
-23 -590 63 0
23 590 -63 0
-23 -591 65 0
23 591 -65 0
-23 -592 67 0
23 592 -67 0
-23 -593 69 0
23 593 -69 0
-23 -594 71 0
23 594 -71 0
-23 -595 73 0
23 595 -73 0
-23 -596 75 0
23 596 -75 0
-23 -597 77 0
23 597 -77 0
-23 -598 79 0
23 598 -79 0
-23 -599 81 0
23 599 -81 0
-23 -600 83 0
23 600 -83 0
-23 -601 85 0
23 601 -85 0
-23 -602 87 0
23 602 -87 0
-23 -603 89 0
23 603 -89 0
-23 -604 91 0
23 604 -91 0
-23 -605 93 0
23 605 -93 0
-23 -606 95 0
23 606 -95 0
-23 -607 97 0
23 607 -97 0
-23 -608 99 0
23 608 -99 0
-23 -609 101 0
23 609 -101 0
-23 -610 103 0
23 610 -103 0
-23 -611 105 0
23 611 -105 0
-25 -612 27 0
25 612 -27 0
-25 -613 29 0
25 613 -29 0
-25 -614 31 0
25 614 -31 0
-25 -615 33 0
25 615 -33 0
-25 -616 35 0
25 616 -35 0
-25 -617 37 0
25 617 -37 0
-25 -618 39 0
25 618 -39 0
-25 -619 41 0
25 619 -41 0
-25 -620 43 0
25 620 -43 0
-25 -621 45 0
25 621 -45 0
-25 -622 47 0
25 622 -47 0
-25 -623 49 0
25 623 -49 0
-25 -624 51 0
25 624 -51 0
-25 -625 53 0
25 625 -53 0
-25 -626 55 0
25 626 -55 0
-25 -627 57 0
25 627 -57 0
-25 -628 59 0
25 628 -59 0
-25 -629 61 0
25 629 -61 0
-25 -630 63 0
25 630 -63 0
-25 -631 65 0
25 631 -65 0
-25 -632 67 0
25 632 -67 0
-25 -633 69 0
25 633 -69 0
-25 -634 71 0
25 634 -71 0
-25 -635 73 0
25 635 -73 0
-25 -636 75 0
25 636 -75 0
-25 -637 77 0
25 637 -77 0
-25 -638 79 0
25 638 -79 0
-25 -639 81 0
25 639 -81 0
-25 -640 83 0
25 640 -83 0
-25 -641 85 0
25 641 -85 0
-25 -642 87 0
25 642 -87 0
-25 -643 89 0
25 643 -89 0
-25 -644 91 0
25 644 -91 0
-25 -645 93 0
25 645 -93 0
-25 -646 95 0
25 646 -95 0
-25 -647 97 0
25 647 -97 0
-25 -648 99 0
25 648 -99 0
-25 -649 101 0
25 649 -101 0
-25 -650 103 0
25 650 -103 0
-25 -651 105 0
25 651 -105 0
-27 -652 29 0
27 652 -29 0
-27 -653 31 0
27 653 -31 0
-27 -654 33 0
27 654 -33 0
-27 -655 35 0
27 655 -35 0
-27 -656 37 0
27 656 -37 0
-27 -657 39 0
27 657 -39 0
-27 -658 41 0
27 658 -41 0
-27 -659 43 0
27 659 -43 0
-27 -660 45 0
27 660 -45 0
-27 -661 47 0
27 661 -47 0
-27 -662 49 0
27 662 -49 0
-27 -663 51 0
27 663 -51 0
-27 -664 53 0
27 664 -53 0
-27 -665 55 0
27 665 -55 0
-27 -666 57 0
27 666 -57 0
-27 -667 59 0
27 667 -59 0
-27 -668 61 0
27 668 -61 0
-27 -669 63 0
27 669 -63 0
-27 -670 65 0
27 670 -65 0
-27 -671 67 0
27 671 -67 0
-27 -672 69 0
27 672 -69 0
-27 -673 71 0
27 673 -71 0
-27 -674 73 0
27 674 -73 0
-27 -675 75 0
27 675 -75 0
-27 -676 77 0
27 676 -77 0
-27 -677 79 0
27 677 -79 0
-27 -678 81 0
27 678 -81 0
-27 -679 83 0
27 679 -83 0
-27 -680 85 0
27 680 -85 0
-27 -681 87 0
27 681 -87 0
-27 -682 89 0
27 682 -89 0
-27 -683 91 0
27 683 -91 0
-27 -684 93 0
27 684 -93 0
-27 -685 95 0
27 685 -95 0
-27 -686 97 0
27 686 -97 0
-27 -687 99 0
27 687 -99 0
-27 -688 101 0
27 688 -101 0
-27 -689 103 0
27 689 -103 0
-27 -690 105 0
27 690 -105 0
-29 -691 31 0
29 691 -31 0
-29 -692 33 0
29 692 -33 0
-29 -693 35 0
29 693 -35 0
-29 -694 37 0
29 694 -37 0
-29 -695 39 0
29 695 -39 0
-29 -696 41 0
29 696 -41 0
-29 -697 43 0
29 697 -43 0
-29 -698 45 0
29 698 -45 0
-29 -699 47 0
29 699 -47 0
-29 -700 49 0
29 700 -49 0
-29 -701 51 0
29 701 -51 0
-29 -702 53 0
29 702 -53 0
-29 -703 55 0
29 703 -55 0
-29 -704 57 0
29 704 -57 0
-29 -705 59 0
29 705 -59 0
-29 -706 61 0
29 706 -61 0
-29 -707 63 0
29 707 -63 0
-29 -708 65 0
29 708 -65 0
-29 -709 67 0
29 709 -67 0
-29 -710 69 0
29 710 -69 0
-29 -711 71 0
29 711 -71 0
-29 -712 73 0
29 712 -73 0
-29 -713 75 0
29 713 -75 0
-29 -714 77 0
29 714 -77 0
-29 -715 79 0
29 715 -79 0
-29 -716 81 0
29 716 -81 0
-29 -717 83 0
29 717 -83 0
-29 -718 85 0
29 718 -85 0
-29 -719 87 0
29 719 -87 0
-29 -720 89 0
29 720 -89 0
-29 -721 91 0
29 721 -91 0
-29 -722 93 0
29 722 -93 0
-29 -723 95 0
29 723 -95 0
-29 -724 97 0
29 724 -97 0
-29 -725 99 0
29 725 -99 0
-29 -726 101 0
29 726 -101 0
-29 -727 103 0
29 727 -103 0
-29 -728 105 0
29 728 -105 0
-31 -729 33 0
31 729 -33 0
-31 -730 35 0
31 730 -35 0
-31 -731 37 0
31 731 -37 0
-31 -732 39 0
31 732 -39 0
-31 -733 41 0
31 733 -41 0
-31 -734 43 0
31 734 -43 0
-31 -735 45 0
31 735 -45 0
-31 -736 47 0
31 736 -47 0
-31 -737 49 0
31 737 -49 0
-31 -738 51 0
31 738 -51 0
-31 -739 53 0
31 739 -53 0
-31 -740 55 0
31 740 -55 0
-31 -741 57 0
31 741 -57 0
-31 -742 59 0
31 742 -59 0
-31 -743 61 0
31 743 -61 0
-31 -744 63 0
31 744 -63 0
-31 -745 65 0
31 745 -65 0
-31 -746 67 0
31 746 -67 0
-31 -747 69 0
31 747 -69 0
-31 -748 71 0
31 748 -71 0
-31 -749 73 0
31 749 -73 0
-31 -750 75 0
31 750 -75 0
-31 -751 77 0
31 751 -77 0
-31 -752 79 0
31 752 -79 0
-31 -753 81 0
31 753 -81 0
-31 -754 83 0
31 754 -83 0
-31 -755 85 0
31 755 -85 0
-31 -756 87 0
31 756 -87 0
-31 -757 89 0
31 757 -89 0
-31 -758 91 0
31 758 -91 0
-31 -759 93 0
31 759 -93 0
-31 -760 95 0
31 760 -95 0
-31 -761 97 0
31 761 -97 0
-31 -762 99 0
31 762 -99 0
-31 -763 101 0
31 763 -101 0
-31 -764 103 0
31 764 -103 0
-31 -765 105 0
31 765 -105 0
-33 -766 35 0
33 766 -35 0
-33 -767 37 0
33 767 -37 0
-33 -768 39 0
33 768 -39 0
-33 -769 41 0
33 769 -41 0
-33 -770 43 0
33 770 -43 0
-33 -771 45 0
33 771 -45 0
-33 -772 47 0
33 772 -47 0
-33 -773 49 0
33 773 -49 0
-33 -774 51 0
33 774 -51 0
-33 -775 53 0
33 775 -53 0
-33 -776 55 0
33 776 -55 0
-33 -777 57 0
33 777 -57 0
-33 -778 59 0
33 778 -59 0
-33 -779 61 0
33 779 -61 0
-33 -780 63 0
33 780 -63 0
-33 -781 65 0
33 781 -65 0
-33 -782 67 0
33 782 -67 0
-33 -783 69 0
33 783 -69 0
-33 -784 71 0
33 784 -71 0
-33 -785 73 0
33 785 -73 0
-33 -786 75 0
33 786 -75 0
-33 -787 77 0
33 787 -77 0
-33 -788 79 0
33 788 -79 0
-33 -789 81 0
33 789 -81 0
-33 -790 83 0
33 790 -83 0
-33 -791 85 0
33 791 -85 0
-33 -792 87 0
33 792 -87 0
-33 -793 89 0
33 793 -89 0
-33 -794 91 0
33 794 -91 0
-33 -795 93 0
33 795 -93 0
-33 -796 95 0
33 796 -95 0
-33 -797 97 0
33 797 -97 0
-33 -798 99 0
33 798 -99 0
-33 -799 101 0
33 799 -101 0
-33 -800 103 0
33 800 -103 0
-33 -801 105 0
33 801 -105 0
-35 -802 37 0
35 802 -37 0
-35 -803 39 0
35 803 -39 0
-35 -804 41 0
35 804 -41 0
-35 -805 43 0
35 805 -43 0
-35 -806 45 0
35 806 -45 0
-35 -807 47 0
35 807 -47 0
-35 -808 49 0
35 808 -49 0
-35 -809 51 0
35 809 -51 0
-35 -810 53 0
35 810 -53 0
-35 -811 55 0
35 811 -55 0
-35 -812 57 0
35 812 -57 0
-35 -813 59 0
35 813 -59 0
-35 -814 61 0
35 814 -61 0
-35 -815 63 0
35 815 -63 0
-35 -816 65 0
35 816 -65 0
-35 -817 67 0
35 817 -67 0
-35 -818 69 0
35 818 -69 0
-35 -819 71 0
35 819 -71 0
-35 -820 73 0
35 820 -73 0
-35 -821 75 0
35 821 -75 0
-35 -822 77 0
35 822 -77 0
-35 -823 79 0
35 823 -79 0
-35 -824 81 0
35 824 -81 0
-35 -825 83 0
35 825 -83 0
-35 -826 85 0
35 826 -85 0
-35 -827 87 0
35 827 -87 0
-35 -828 89 0
35 828 -89 0
-35 -829 91 0
35 829 -91 0
-35 -830 93 0
35 830 -93 0
-35 -831 95 0
35 831 -95 0
-35 -832 97 0
35 832 -97 0
-35 -833 99 0
35 833 -99 0
-35 -834 101 0
35 834 -101 0
-35 -835 103 0
35 835 -103 0
-35 -836 105 0
35 836 -105 0
-37 -837 39 0
37 837 -39 0
-37 -838 41 0
37 838 -41 0
-37 -839 43 0
37 839 -43 0
-37 -840 45 0
37 840 -45 0
-37 -841 47 0
37 841 -47 0
-37 -842 49 0
37 842 -49 0
-37 -843 51 0
37 843 -51 0
-37 -844 53 0
37 844 -53 0
-37 -845 55 0
37 845 -55 0
-37 -846 57 0
37 846 -57 0
-37 -847 59 0
37 847 -59 0
-37 -848 61 0
37 848 -61 0
-37 -849 63 0
37 849 -63 0
-37 -850 65 0
37 850 -65 0
-37 -851 67 0
37 851 -67 0
-37 -852 69 0
37 852 -69 0
-37 -853 71 0
37 853 -71 0
-37 -854 73 0
37 854 -73 0
-37 -855 75 0
37 855 -75 0
-37 -856 77 0
37 856 -77 0
-37 -857 79 0
37 857 -79 0
-37 -858 81 0
37 858 -81 0
-37 -859 83 0
37 859 -83 0
-37 -860 85 0
37 860 -85 0
-37 -861 87 0
37 861 -87 0
-37 -862 89 0
37 862 -89 0
-37 -863 91 0
37 863 -91 0
-37 -864 93 0
37 864 -93 0
-37 -865 95 0
37 865 -95 0
-37 -866 97 0
37 866 -97 0
-37 -867 99 0
37 867 -99 0
-37 -868 101 0
37 868 -101 0
-37 -869 103 0
37 869 -103 0
-37 -870 105 0
37 870 -105 0
-39 -871 41 0
39 871 -41 0
-39 -872 43 0
39 872 -43 0
-39 -873 45 0
39 873 -45 0
-39 -874 47 0
39 874 -47 0
-39 -875 49 0
39 875 -49 0
-39 -876 51 0
39 876 -51 0
-39 -877 53 0
39 877 -53 0
-39 -878 55 0
39 878 -55 0
-39 -879 57 0
39 879 -57 0
-39 -880 59 0
39 880 -59 0
-39 -881 61 0
39 881 -61 0
-39 -882 63 0
39 882 -63 0
-39 -883 65 0
39 883 -65 0
-39 -884 67 0
39 884 -67 0
-39 -885 69 0
39 885 -69 0
-39 -886 71 0
39 886 -71 0
-39 -887 73 0
39 887 -73 0
-39 -888 75 0
39 888 -75 0
-39 -889 77 0
39 889 -77 0
-39 -890 79 0
39 890 -79 0
-39 -891 81 0
39 891 -81 0
-39 -892 83 0
39 892 -83 0
-39 -893 85 0
39 893 -85 0
-39 -894 87 0
39 894 -87 0
-39 -895 89 0
39 895 -89 0
-39 -896 91 0
39 896 -91 0
-39 -897 93 0
39 897 -93 0
-39 -898 95 0
39 898 -95 0
-39 -899 97 0
39 899 -97 0
-39 -900 99 0
39 900 -99 0
-39 -901 101 0
39 901 -101 0
-39 -902 103 0
39 902 -103 0
-39 -903 105 0
39 903 -105 0
-41 -904 43 0
41 904 -43 0
-41 -905 45 0
41 905 -45 0
-41 -906 47 0
41 906 -47 0
-41 -907 49 0
41 907 -49 0
-41 -908 51 0
41 908 -51 0
-41 -909 53 0
41 909 -53 0
-41 -910 55 0
41 910 -55 0
-41 -911 57 0
41 911 -57 0
-41 -912 59 0
41 912 -59 0
-41 -913 61 0
41 913 -61 0
-41 -914 63 0
41 914 -63 0
-41 -915 65 0
41 915 -65 0
-41 -916 67 0
41 916 -67 0
-41 -917 69 0
41 917 -69 0
-41 -918 71 0
41 918 -71 0
-41 -919 73 0
41 919 -73 0
-41 -920 75 0
41 920 -75 0
-41 -921 77 0
41 921 -77 0
-41 -922 79 0
41 922 -79 0
-41 -923 81 0
41 923 -81 0
-41 -924 83 0
41 924 -83 0
-41 -925 85 0
41 925 -85 0
-41 -926 87 0
41 926 -87 0
-41 -927 89 0
41 927 -89 0
-41 -928 91 0
41 928 -91 0
-41 -929 93 0
41 929 -93 0
-41 -930 95 0
41 930 -95 0
-41 -931 97 0
41 931 -97 0
-41 -932 99 0
41 932 -99 0
-41 -933 101 0
41 933 -101 0
-41 -934 103 0
41 934 -103 0
-41 -935 105 0
41 935 -105 0
-43 -936 45 0
43 936 -45 0
-43 -937 47 0
43 937 -47 0
-43 -938 49 0
43 938 -49 0
-43 -939 51 0
43 939 -51 0
-43 -940 53 0
43 940 -53 0
-43 -941 55 0
43 941 -55 0
-43 -942 57 0
43 942 -57 0
-43 -943 59 0
43 943 -59 0
-43 -944 61 0
43 944 -61 0
-43 -945 63 0
43 945 -63 0
-43 -946 65 0
43 946 -65 0
-43 -947 67 0
43 947 -67 0
-43 -948 69 0
43 948 -69 0
-43 -949 71 0
43 949 -71 0
-43 -950 73 0
43 950 -73 0
-43 -951 75 0
43 951 -75 0
-43 -952 77 0
43 952 -77 0
-43 -953 79 0
43 953 -79 0
-43 -954 81 0
43 954 -81 0
-43 -955 83 0
43 955 -83 0
-43 -956 85 0
43 956 -85 0
-43 -957 87 0
43 957 -87 0
-43 -958 89 0
43 958 -89 0
-43 -959 91 0
43 959 -91 0
-43 -960 93 0
43 960 -93 0
-43 -961 95 0
43 961 -95 0
-43 -962 97 0
43 962 -97 0
-43 -963 99 0
43 963 -99 0
-43 -964 101 0
43 964 -101 0
-43 -965 103 0
43 965 -103 0
-43 -966 105 0
43 966 -105 0
-45 -967 47 0
45 967 -47 0
-45 -968 49 0
45 968 -49 0
-45 -969 51 0
45 969 -51 0
-45 -970 53 0
45 970 -53 0
-45 -971 55 0
45 971 -55 0
-45 -972 57 0
45 972 -57 0
-45 -973 59 0
45 973 -59 0
-45 -974 61 0
45 974 -61 0
-45 -975 63 0
45 975 -63 0
-45 -976 65 0
45 976 -65 0
-45 -977 67 0
45 977 -67 0
-45 -978 69 0
45 978 -69 0
-45 -979 71 0
45 979 -71 0
-45 -980 73 0
45 980 -73 0
-45 -981 75 0
45 981 -75 0
-45 -982 77 0
45 982 -77 0
-45 -983 79 0
45 983 -79 0
-45 -984 81 0
45 984 -81 0
-45 -985 83 0
45 985 -83 0
-45 -986 85 0
45 986 -85 0
-45 -987 87 0
45 987 -87 0
-45 -988 89 0
45 988 -89 0
-45 -989 91 0
45 989 -91 0
-45 -990 93 0
45 990 -93 0
-45 -991 95 0
45 991 -95 0
-45 -992 97 0
45 992 -97 0
-45 -993 99 0
45 993 -99 0
-45 -994 101 0
45 994 -101 0
-45 -995 103 0
45 995 -103 0
-45 -996 105 0
45 996 -105 0
-47 -997 49 0
47 997 -49 0
-47 -998 51 0
47 998 -51 0
-47 -999 53 0
47 999 -53 0
-47 -1000 55 0
47 1000 -55 0
-47 -1001 57 0
47 1001 -57 0
-47 -1002 59 0
47 1002 -59 0
-47 -1003 61 0
47 1003 -61 0
-47 -1004 63 0
47 1004 -63 0
-47 -1005 65 0
47 1005 -65 0
-47 -1006 67 0
47 1006 -67 0
-47 -1007 69 0
47 1007 -69 0
-47 -1008 71 0
47 1008 -71 0
-47 -1009 73 0
47 1009 -73 0
-47 -1010 75 0
47 1010 -75 0
-47 -1011 77 0
47 1011 -77 0
-47 -1012 79 0
47 1012 -79 0
-47 -1013 81 0
47 1013 -81 0
-47 -1014 83 0
47 1014 -83 0
-47 -1015 85 0
47 1015 -85 0
-47 -1016 87 0
47 1016 -87 0
-47 -1017 89 0
47 1017 -89 0
-47 -1018 91 0
47 1018 -91 0
-47 -1019 93 0
47 1019 -93 0
-47 -1020 95 0
47 1020 -95 0
-47 -1021 97 0
47 1021 -97 0
-47 -1022 99 0
47 1022 -99 0
-47 -1023 101 0
47 1023 -101 0
-47 -1024 103 0
47 1024 -103 0
-47 -1025 105 0
47 1025 -105 0
-49 -1026 51 0
49 1026 -51 0
-49 -1027 53 0
49 1027 -53 0
-49 -1028 55 0
49 1028 -55 0
-49 -1029 57 0
49 1029 -57 0
-49 -1030 59 0
49 1030 -59 0
-49 -1031 61 0
49 1031 -61 0
-49 -1032 63 0
49 1032 -63 0
-49 -1033 65 0
49 1033 -65 0
-49 -1034 67 0
49 1034 -67 0
-49 -1035 69 0
49 1035 -69 0
-49 -1036 71 0
49 1036 -71 0
-49 -1037 73 0
49 1037 -73 0
-49 -1038 75 0
49 1038 -75 0
-49 -1039 77 0
49 1039 -77 0
-49 -1040 79 0
49 1040 -79 0
-49 -1041 81 0
49 1041 -81 0
-49 -1042 83 0
49 1042 -83 0
-49 -1043 85 0
49 1043 -85 0
-49 -1044 87 0
49 1044 -87 0
-49 -1045 89 0
49 1045 -89 0
-49 -1046 91 0
49 1046 -91 0
-49 -1047 93 0
49 1047 -93 0
-49 -1048 95 0
49 1048 -95 0
-49 -1049 97 0
49 1049 -97 0
-49 -1050 99 0
49 1050 -99 0
-49 -1051 101 0
49 1051 -101 0
-49 -1052 103 0
49 1052 -103 0
-49 -1053 105 0
49 1053 -105 0
-51 -1054 53 0
51 1054 -53 0
-51 -1055 55 0
51 1055 -55 0
-51 -1056 57 0
51 1056 -57 0
-51 -1057 59 0
51 1057 -59 0
-51 -1058 61 0
51 1058 -61 0
-51 -1059 63 0
51 1059 -63 0
-51 -1060 65 0
51 1060 -65 0
-51 -1061 67 0
51 1061 -67 0
-51 -1062 69 0
51 1062 -69 0
-51 -1063 71 0
51 1063 -71 0
-51 -1064 73 0
51 1064 -73 0
-51 -1065 75 0
51 1065 -75 0
-51 -1066 77 0
51 1066 -77 0
-51 -1067 79 0
51 1067 -79 0
-51 -1068 81 0
51 1068 -81 0
-51 -1069 83 0
51 1069 -83 0
-51 -1070 85 0
51 1070 -85 0
-51 -1071 87 0
51 1071 -87 0
-51 -1072 89 0
51 1072 -89 0
-51 -1073 91 0
51 1073 -91 0
-51 -1074 93 0
51 1074 -93 0
-51 -1075 95 0
51 1075 -95 0
-51 -1076 97 0
51 1076 -97 0
-51 -1077 99 0
51 1077 -99 0
-51 -1078 101 0
51 1078 -101 0
-51 -1079 103 0
51 1079 -103 0
-51 -1080 105 0
51 1080 -105 0
-53 -1081 55 0
53 1081 -55 0
-53 -1082 57 0
53 1082 -57 0
-53 -1083 59 0
53 1083 -59 0
-53 -1084 61 0
53 1084 -61 0
-53 -1085 63 0
53 1085 -63 0
-53 -1086 65 0
53 1086 -65 0
-53 -1087 67 0
53 1087 -67 0
-53 -1088 69 0
53 1088 -69 0
-53 -1089 71 0
53 1089 -71 0
-53 -1090 73 0
53 1090 -73 0
-53 -1091 75 0
53 1091 -75 0
-53 -1092 77 0
53 1092 -77 0
-53 -1093 79 0
53 1093 -79 0
-53 -1094 81 0
53 1094 -81 0
-53 -1095 83 0
53 1095 -83 0
-53 -1096 85 0
53 1096 -85 0
-53 -1097 87 0
53 1097 -87 0
-53 -1098 89 0
53 1098 -89 0
-53 -1099 91 0
53 1099 -91 0
-53 -1100 93 0
53 1100 -93 0
-53 -1101 95 0
53 1101 -95 0
-53 -1102 97 0
53 1102 -97 0
-53 -1103 99 0
53 1103 -99 0
-53 -1104 101 0
53 1104 -101 0
-53 -1105 103 0
53 1105 -103 0
-53 -1106 105 0
53 1106 -105 0
-55 -1107 57 0
55 1107 -57 0
-55 -1108 59 0
55 1108 -59 0
-55 -1109 61 0
55 1109 -61 0
-55 -1110 63 0
55 1110 -63 0
-55 -1111 65 0
55 1111 -65 0
-55 -1112 67 0
55 1112 -67 0
-55 -1113 69 0
55 1113 -69 0
-55 -1114 71 0
55 1114 -71 0
-55 -1115 73 0
55 1115 -73 0
-55 -1116 75 0
55 1116 -75 0
-55 -1117 77 0
55 1117 -77 0
-55 -1118 79 0
55 1118 -79 0
-55 -1119 81 0
55 1119 -81 0
-55 -1120 83 0
55 1120 -83 0
-55 -1121 85 0
55 1121 -85 0
-55 -1122 87 0
55 1122 -87 0
-55 -1123 89 0
55 1123 -89 0
-55 -1124 91 0
55 1124 -91 0
-55 -1125 93 0
55 1125 -93 0
-55 -1126 95 0
55 1126 -95 0
-55 -1127 97 0
55 1127 -97 0
-55 -1128 99 0
55 1128 -99 0
-55 -1129 101 0
55 1129 -101 0
-55 -1130 103 0
55 1130 -103 0
-55 -1131 105 0
55 1131 -105 0
-57 -1132 59 0
57 1132 -59 0
-57 -1133 61 0
57 1133 -61 0
-57 -1134 63 0
57 1134 -63 0
-57 -1135 65 0
57 1135 -65 0
-57 -1136 67 0
57 1136 -67 0
-57 -1137 69 0
57 1137 -69 0
-57 -1138 71 0
57 1138 -71 0
-57 -1139 73 0
57 1139 -73 0
-57 -1140 75 0
57 1140 -75 0
-57 -1141 77 0
57 1141 -77 0
-57 -1142 79 0
57 1142 -79 0
-57 -1143 81 0
57 1143 -81 0
-57 -1144 83 0
57 1144 -83 0
-57 -1145 85 0
57 1145 -85 0
-57 -1146 87 0
57 1146 -87 0
-57 -1147 89 0
57 1147 -89 0
-57 -1148 91 0
57 1148 -91 0
-57 -1149 93 0
57 1149 -93 0
-57 -1150 95 0
57 1150 -95 0
-57 -1151 97 0
57 1151 -97 0
-57 -1152 99 0
57 1152 -99 0
-57 -1153 101 0
57 1153 -101 0
-57 -1154 103 0
57 1154 -103 0
-57 -1155 105 0
57 1155 -105 0
-59 -1156 61 0
59 1156 -61 0
-59 -1157 63 0
59 1157 -63 0
-59 -1158 65 0
59 1158 -65 0
-59 -1159 67 0
59 1159 -67 0
-59 -1160 69 0
59 1160 -69 0
-59 -1161 71 0
59 1161 -71 0
-59 -1162 73 0
59 1162 -73 0
-59 -1163 75 0
59 1163 -75 0
-59 -1164 77 0
59 1164 -77 0
-59 -1165 79 0
59 1165 -79 0
-59 -1166 81 0
59 1166 -81 0
-59 -1167 83 0
59 1167 -83 0
-59 -1168 85 0
59 1168 -85 0
-59 -1169 87 0
59 1169 -87 0
-59 -1170 89 0
59 1170 -89 0
-59 -1171 91 0
59 1171 -91 0
-59 -1172 93 0
59 1172 -93 0
-59 -1173 95 0
59 1173 -95 0
-59 -1174 97 0
59 1174 -97 0
-59 -1175 99 0
59 1175 -99 0
-59 -1176 101 0
59 1176 -101 0
-59 -1177 103 0
59 1177 -103 0
-59 -1178 105 0
59 1178 -105 0
-61 -1179 63 0
61 1179 -63 0
-61 -1180 65 0
61 1180 -65 0
-61 -1181 67 0
61 1181 -67 0
-61 -1182 69 0
61 1182 -69 0
-61 -1183 71 0
61 1183 -71 0
-61 -1184 73 0
61 1184 -73 0
-61 -1185 75 0
61 1185 -75 0
-61 -1186 77 0
61 1186 -77 0
-61 -1187 79 0
61 1187 -79 0
-61 -1188 81 0
61 1188 -81 0
-61 -1189 83 0
61 1189 -83 0
-61 -1190 85 0
61 1190 -85 0
-61 -1191 87 0
61 1191 -87 0
-61 -1192 89 0
61 1192 -89 0
-61 -1193 91 0
61 1193 -91 0
-61 -1194 93 0
61 1194 -93 0
-61 -1195 95 0
61 1195 -95 0
-61 -1196 97 0
61 1196 -97 0
-61 -1197 99 0
61 1197 -99 0
-61 -1198 101 0
61 1198 -101 0
-61 -1199 103 0
61 1199 -103 0
-61 -1200 105 0
61 1200 -105 0
-63 -1201 65 0
63 1201 -65 0
-63 -1202 67 0
63 1202 -67 0
-63 -1203 69 0
63 1203 -69 0
-63 -1204 71 0
63 1204 -71 0
-63 -1205 73 0
63 1205 -73 0
-63 -1206 75 0
63 1206 -75 0
-63 -1207 77 0
63 1207 -77 0
-63 -1208 79 0
63 1208 -79 0
-63 -1209 81 0
63 1209 -81 0
-63 -1210 83 0
63 1210 -83 0
-63 -1211 85 0
63 1211 -85 0
-63 -1212 87 0
63 1212 -87 0
-63 -1213 89 0
63 1213 -89 0
-63 -1214 91 0
63 1214 -91 0
-63 -1215 93 0
63 1215 -93 0
-63 -1216 95 0
63 1216 -95 0
-63 -1217 97 0
63 1217 -97 0
-63 -1218 99 0
63 1218 -99 0
-63 -1219 101 0
63 1219 -101 0
-63 -1220 103 0
63 1220 -103 0
-63 -1221 105 0
63 1221 -105 0
-65 -1222 67 0
65 1222 -67 0
-65 -1223 69 0
65 1223 -69 0
-65 -1224 71 0
65 1224 -71 0
-65 -1225 73 0
65 1225 -73 0
-65 -1226 75 0
65 1226 -75 0
-65 -1227 77 0
65 1227 -77 0
-65 -1228 79 0
65 1228 -79 0
-65 -1229 81 0
65 1229 -81 0
-65 -1230 83 0
65 1230 -83 0
-65 -1231 85 0
65 1231 -85 0
-65 -1232 87 0
65 1232 -87 0
-65 -1233 89 0
65 1233 -89 0
-65 -1234 91 0
65 1234 -91 0
-65 -1235 93 0
65 1235 -93 0
-65 -1236 95 0
65 1236 -95 0
-65 -1237 97 0
65 1237 -97 0
-65 -1238 99 0
65 1238 -99 0
-65 -1239 101 0
65 1239 -101 0
-65 -1240 103 0
65 1240 -103 0
-65 -1241 105 0
65 1241 -105 0
-67 -1242 69 0
67 1242 -69 0
-67 -1243 71 0
67 1243 -71 0
-67 -1244 73 0
67 1244 -73 0
-67 -1245 75 0
67 1245 -75 0
-67 -1246 77 0
67 1246 -77 0
-67 -1247 79 0
67 1247 -79 0
-67 -1248 81 0
67 1248 -81 0
-67 -1249 83 0
67 1249 -83 0
-67 -1250 85 0
67 1250 -85 0
-67 -1251 87 0
67 1251 -87 0
-67 -1252 89 0
67 1252 -89 0
-67 -1253 91 0
67 1253 -91 0
-67 -1254 93 0
67 1254 -93 0
-67 -1255 95 0
67 1255 -95 0
-67 -1256 97 0
67 1256 -97 0
-67 -1257 99 0
67 1257 -99 0
-67 -1258 101 0
67 1258 -101 0
-67 -1259 103 0
67 1259 -103 0
-67 -1260 105 0
67 1260 -105 0
-69 -1261 71 0
69 1261 -71 0
-69 -1262 73 0
69 1262 -73 0
-69 -1263 75 0
69 1263 -75 0
-69 -1264 77 0
69 1264 -77 0
-69 -1265 79 0
69 1265 -79 0
-69 -1266 81 0
69 1266 -81 0
-69 -1267 83 0
69 1267 -83 0
-69 -1268 85 0
69 1268 -85 0
-69 -1269 87 0
69 1269 -87 0
-69 -1270 89 0
69 1270 -89 0
-69 -1271 91 0
69 1271 -91 0
-69 -1272 93 0
69 1272 -93 0
-69 -1273 95 0
69 1273 -95 0
-69 -1274 97 0
69 1274 -97 0
-69 -1275 99 0
69 1275 -99 0
-69 -1276 101 0
69 1276 -101 0
-69 -1277 103 0
69 1277 -103 0
-69 -1278 105 0
69 1278 -105 0
-71 -1279 73 0
71 1279 -73 0
-71 -1280 75 0
71 1280 -75 0
-71 -1281 77 0
71 1281 -77 0
-71 -1282 79 0
71 1282 -79 0
-71 -1283 81 0
71 1283 -81 0
-71 -1284 83 0
71 1284 -83 0
-71 -1285 85 0
71 1285 -85 0
-71 -1286 87 0
71 1286 -87 0
-71 -1287 89 0
71 1287 -89 0
-71 -1288 91 0
71 1288 -91 0
-71 -1289 93 0
71 1289 -93 0
-71 -1290 95 0
71 1290 -95 0
-71 -1291 97 0
71 1291 -97 0
-71 -1292 99 0
71 1292 -99 0
-71 -1293 101 0
71 1293 -101 0
-71 -1294 103 0
71 1294 -103 0
-71 -1295 105 0
71 1295 -105 0
-73 -1296 75 0
73 1296 -75 0
-73 -1297 77 0
73 1297 -77 0
-73 -1298 79 0
73 1298 -79 0
-73 -1299 81 0
73 1299 -81 0
-73 -1300 83 0
73 1300 -83 0
-73 -1301 85 0
73 1301 -85 0
-73 -1302 87 0
73 1302 -87 0
-73 -1303 89 0
73 1303 -89 0
-73 -1304 91 0
73 1304 -91 0
-73 -1305 93 0
73 1305 -93 0
-73 -1306 95 0
73 1306 -95 0
-73 -1307 97 0
73 1307 -97 0
-73 -1308 99 0
73 1308 -99 0
-73 -1309 101 0
73 1309 -101 0
-73 -1310 103 0
73 1310 -103 0
-73 -1311 105 0
73 1311 -105 0
-75 -1312 77 0
75 1312 -77 0
-75 -1313 79 0
75 1313 -79 0
-75 -1314 81 0
75 1314 -81 0
-75 -1315 83 0
75 1315 -83 0
-75 -1316 85 0
75 1316 -85 0
-75 -1317 87 0
75 1317 -87 0
-75 -1318 89 0
75 1318 -89 0
-75 -1319 91 0
75 1319 -91 0
-75 -1320 93 0
75 1320 -93 0
-75 -1321 95 0
75 1321 -95 0
-75 -1322 97 0
75 1322 -97 0
-75 -1323 99 0
75 1323 -99 0
-75 -1324 101 0
75 1324 -101 0
-75 -1325 103 0
75 1325 -103 0
-75 -1326 105 0
75 1326 -105 0
-77 -1327 79 0
77 1327 -79 0
-77 -1328 81 0
77 1328 -81 0
-77 -1329 83 0
77 1329 -83 0
-77 -1330 85 0
77 1330 -85 0
-77 -1331 87 0
77 1331 -87 0
-77 -1332 89 0
77 1332 -89 0
-77 -1333 91 0
77 1333 -91 0
-77 -1334 93 0
77 1334 -93 0
-77 -1335 95 0
77 1335 -95 0
-77 -1336 97 0
77 1336 -97 0
-77 -1337 99 0
77 1337 -99 0
-77 -1338 101 0
77 1338 -101 0
-77 -1339 103 0
77 1339 -103 0
-77 -1340 105 0
77 1340 -105 0
-79 -1341 81 0
79 1341 -81 0
-79 -1342 83 0
79 1342 -83 0
-79 -1343 85 0
79 1343 -85 0
-79 -1344 87 0
79 1344 -87 0
-79 -1345 89 0
79 1345 -89 0
-79 -1346 91 0
79 1346 -91 0
-79 -1347 93 0
79 1347 -93 0
-79 -1348 95 0
79 1348 -95 0
-79 -1349 97 0
79 1349 -97 0
-79 -1350 99 0
79 1350 -99 0
-79 -1351 101 0
79 1351 -101 0
-79 -1352 103 0
79 1352 -103 0
-79 -1353 105 0
79 1353 -105 0
-81 -1354 83 0
81 1354 -83 0
-81 -1355 85 0
81 1355 -85 0
-81 -1356 87 0
81 1356 -87 0
-81 -1357 89 0
81 1357 -89 0
-81 -1358 91 0
81 1358 -91 0
-81 -1359 93 0
81 1359 -93 0
-81 -1360 95 0
81 1360 -95 0
-81 -1361 97 0
81 1361 -97 0
-81 -1362 99 0
81 1362 -99 0
-81 -1363 101 0
81 1363 -101 0
-81 -1364 103 0
81 1364 -103 0
-81 -1365 105 0
81 1365 -105 0
-83 -1366 85 0
83 1366 -85 0
-83 -1367 87 0
83 1367 -87 0
-83 -1368 89 0
83 1368 -89 0
-83 -1369 91 0
83 1369 -91 0
-83 -1370 93 0
83 1370 -93 0
-83 -1371 95 0
83 1371 -95 0
-83 -1372 97 0
83 1372 -97 0
-83 -1373 99 0
83 1373 -99 0
-83 -1374 101 0
83 1374 -101 0
-83 -1375 103 0
83 1375 -103 0
-83 -1376 105 0
83 1376 -105 0
-85 -1377 87 0
85 1377 -87 0
-85 -1378 89 0
85 1378 -89 0
-85 -1379 91 0
85 1379 -91 0
-85 -1380 93 0
85 1380 -93 0
-85 -1381 95 0
85 1381 -95 0
-85 -1382 97 0
85 1382 -97 0
-85 -1383 99 0
85 1383 -99 0
-85 -1384 101 0
85 1384 -101 0
-85 -1385 103 0
85 1385 -103 0
-85 -1386 105 0
85 1386 -105 0
-87 -1387 89 0
87 1387 -89 0
-87 -1388 91 0
87 1388 -91 0
-87 -1389 93 0
87 1389 -93 0
-87 -1390 95 0
87 1390 -95 0
-87 -1391 97 0
87 1391 -97 0
-87 -1392 99 0
87 1392 -99 0
-87 -1393 101 0
87 1393 -101 0
-87 -1394 103 0
87 1394 -103 0
-87 -1395 105 0
87 1395 -105 0
-89 -1396 91 0
89 1396 -91 0
-89 -1397 93 0
89 1397 -93 0
-89 -1398 95 0
89 1398 -95 0
-89 -1399 97 0
89 1399 -97 0
-89 -1400 99 0
89 1400 -99 0
-89 -1401 101 0
89 1401 -101 0
-89 -1402 103 0
89 1402 -103 0
-89 -1403 105 0
89 1403 -105 0
-91 -1404 93 0
91 1404 -93 0
-91 -1405 95 0
91 1405 -95 0
-91 -1406 97 0
91 1406 -97 0
-91 -1407 99 0
91 1407 -99 0
-91 -1408 101 0
91 1408 -101 0
-91 -1409 103 0
91 1409 -103 0
-91 -1410 105 0
91 1410 -105 0
-93 -1411 95 0
93 1411 -95 0
-93 -1412 97 0
93 1412 -97 0
-93 -1413 99 0
93 1413 -99 0
-93 -1414 101 0
93 1414 -101 0
-93 -1415 103 0
93 1415 -103 0
-93 -1416 105 0
93 1416 -105 0
-95 -1417 97 0
95 1417 -97 0
-95 -1418 99 0
95 1418 -99 0
-95 -1419 101 0
95 1419 -101 0
-95 -1420 103 0
95 1420 -103 0
-95 -1421 105 0
95 1421 -105 0
-97 -1422 99 0
97 1422 -99 0
-97 -1423 101 0
97 1423 -101 0
-97 -1424 103 0
97 1424 -103 0
-97 -1425 105 0
97 1425 -105 0
-99 -1426 101 0
99 1426 -101 0
-99 -1427 103 0
99 1427 -103 0
-99 -1428 105 0
99 1428 -105 0
-101 -1429 103 0
101 1429 -103 0
-101 -1430 105 0
101 1430 -105 0
-103 -1431 105 0
103 1431 -105 0
-2 -106 4 0
2 106 -4 0
-2 -107 6 0
2 107 -6 0
-2 -108 8 0
2 108 -8 0
-2 -109 10 0
2 109 -10 0
-2 -110 12 0
2 110 -12 0
-2 -111 14 0
2 111 -14 0
-2 -112 16 0
2 112 -16 0
-2 -113 18 0
2 113 -18 0
-2 -114 20 0
2 114 -20 0
-2 -115 22 0
2 115 -22 0
-2 -116 24 0
2 116 -24 0
-2 -117 26 0
2 117 -26 0
-2 -118 28 0
2 118 -28 0
-2 -119 30 0
2 119 -30 0
-2 -120 32 0
2 120 -32 0
-2 -121 34 0
2 121 -34 0
-2 -122 36 0
2 122 -36 0
-2 -123 38 0
2 123 -38 0
-2 -124 40 0
2 124 -40 0
-2 -125 42 0
2 125 -42 0
-2 -126 44 0
2 126 -44 0
-2 -127 46 0
2 127 -46 0
-2 -128 48 0
2 128 -48 0
-2 -129 50 0
2 129 -50 0
-2 -130 52 0
2 130 -52 0
-2 -131 54 0
2 131 -54 0
-2 -132 56 0
2 132 -56 0
-2 -133 58 0
2 133 -58 0
-2 -134 60 0
2 134 -60 0
-2 -135 62 0
2 135 -62 0
-2 -136 64 0
2 136 -64 0
-2 -137 66 0
2 137 -66 0
-2 -138 68 0
2 138 -68 0
-2 -139 70 0
2 139 -70 0
-2 -140 72 0
2 140 -72 0
-2 -141 74 0
2 141 -74 0
-2 -142 76 0
2 142 -76 0
-2 -143 78 0
2 143 -78 0
-2 -144 80 0
2 144 -80 0
-2 -145 82 0
2 145 -82 0
-2 -146 84 0
2 146 -84 0
-2 -147 86 0
2 147 -86 0
-2 -148 88 0
2 148 -88 0
-2 -149 90 0
2 149 -90 0
-2 -150 92 0
2 150 -92 0
-2 -151 94 0
2 151 -94 0
-2 -152 96 0
2 152 -96 0
-2 -153 98 0
2 153 -98 0
-2 -154 100 0
2 154 -100 0
-2 -155 102 0
2 155 -102 0
-2 -156 104 0
2 156 -104 0
-4 -157 6 0
4 157 -6 0
-4 -158 8 0
4 158 -8 0
-4 -159 10 0
4 159 -10 0
-4 -160 12 0
4 160 -12 0
-4 -161 14 0
4 161 -14 0
-4 -162 16 0
4 162 -16 0
-4 -163 18 0
4 163 -18 0
-4 -164 20 0
4 164 -20 0
-4 -165 22 0
4 165 -22 0
-4 -166 24 0
4 166 -24 0
-4 -167 26 0
4 167 -26 0
-4 -168 28 0
4 168 -28 0
-4 -169 30 0
4 169 -30 0
-4 -170 32 0
4 170 -32 0
-4 -171 34 0
4 171 -34 0
-4 -172 36 0
4 172 -36 0
-4 -173 38 0
4 173 -38 0
-4 -174 40 0
4 174 -40 0
-4 -175 42 0
4 175 -42 0
-4 -176 44 0
4 176 -44 0
-4 -177 46 0
4 177 -46 0
-4 -178 48 0
4 178 -48 0
-4 -179 50 0
4 179 -50 0
-4 -180 52 0
4 180 -52 0
-4 -181 54 0
4 181 -54 0
-4 -182 56 0
4 182 -56 0
-4 -183 58 0
4 183 -58 0
-4 -184 60 0
4 184 -60 0
-4 -185 62 0
4 185 -62 0
-4 -186 64 0
4 186 -64 0
-4 -187 66 0
4 187 -66 0
-4 -188 68 0
4 188 -68 0
-4 -189 70 0
4 189 -70 0
-4 -190 72 0
4 190 -72 0
-4 -191 74 0
4 191 -74 0
-4 -192 76 0
4 192 -76 0
-4 -193 78 0
4 193 -78 0
-4 -194 80 0
4 194 -80 0
-4 -195 82 0
4 195 -82 0
-4 -196 84 0
4 196 -84 0
-4 -197 86 0
4 197 -86 0
-4 -198 88 0
4 198 -88 0
-4 -199 90 0
4 199 -90 0
-4 -200 92 0
4 200 -92 0
-4 -201 94 0
4 201 -94 0
-4 -202 96 0
4 202 -96 0
-4 -203 98 0
4 203 -98 0
-4 -204 100 0
4 204 -100 0
-4 -205 102 0
4 205 -102 0
-4 -206 104 0
4 206 -104 0
-6 -207 8 0
6 207 -8 0
-6 -208 10 0
6 208 -10 0
-6 -209 12 0
6 209 -12 0
-6 -210 14 0
6 210 -14 0
-6 -211 16 0
6 211 -16 0
-6 -212 18 0
6 212 -18 0
-6 -213 20 0
6 213 -20 0
-6 -214 22 0
6 214 -22 0
-6 -215 24 0
6 215 -24 0
-6 -216 26 0
6 216 -26 0
-6 -217 28 0
6 217 -28 0
-6 -218 30 0
6 218 -30 0
-6 -219 32 0
6 219 -32 0
-6 -220 34 0
6 220 -34 0
-6 -221 36 0
6 221 -36 0
-6 -222 38 0
6 222 -38 0
-6 -223 40 0
6 223 -40 0
-6 -224 42 0
6 224 -42 0
-6 -225 44 0
6 225 -44 0
-6 -226 46 0
6 226 -46 0
-6 -227 48 0
6 227 -48 0
-6 -228 50 0
6 228 -50 0
-6 -229 52 0
6 229 -52 0
-6 -230 54 0
6 230 -54 0
-6 -231 56 0
6 231 -56 0
-6 -232 58 0
6 232 -58 0
-6 -233 60 0
6 233 -60 0
-6 -234 62 0
6 234 -62 0
-6 -235 64 0
6 235 -64 0
-6 -236 66 0
6 236 -66 0
-6 -237 68 0
6 237 -68 0
-6 -238 70 0
6 238 -70 0
-6 -239 72 0
6 239 -72 0
-6 -240 74 0
6 240 -74 0
-6 -241 76 0
6 241 -76 0
-6 -242 78 0
6 242 -78 0
-6 -243 80 0
6 243 -80 0
-6 -244 82 0
6 244 -82 0
-6 -245 84 0
6 245 -84 0
-6 -246 86 0
6 246 -86 0
-6 -247 88 0
6 247 -88 0
-6 -248 90 0
6 248 -90 0
-6 -249 92 0
6 249 -92 0
-6 -250 94 0
6 250 -94 0
-6 -251 96 0
6 251 -96 0
-6 -252 98 0
6 252 -98 0
-6 -253 100 0
6 253 -100 0
-6 -254 102 0
6 254 -102 0
-6 -255 104 0
6 255 -104 0
-8 -256 10 0
8 256 -10 0
-8 -257 12 0
8 257 -12 0
-8 -258 14 0
8 258 -14 0
-8 -259 16 0
8 259 -16 0
-8 -260 18 0
8 260 -18 0
-8 -261 20 0
8 261 -20 0
-8 -262 22 0
8 262 -22 0
-8 -263 24 0
8 263 -24 0
-8 -264 26 0
8 264 -26 0
-8 -265 28 0
8 265 -28 0
-8 -266 30 0
8 266 -30 0
-8 -267 32 0
8 267 -32 0
-8 -268 34 0
8 268 -34 0
-8 -269 36 0
8 269 -36 0
-8 -270 38 0
8 270 -38 0
-8 -271 40 0
8 271 -40 0
-8 -272 42 0
8 272 -42 0
-8 -273 44 0
8 273 -44 0
-8 -274 46 0
8 274 -46 0
-8 -275 48 0
8 275 -48 0
-8 -276 50 0
8 276 -50 0
-8 -277 52 0
8 277 -52 0
-8 -278 54 0
8 278 -54 0
-8 -279 56 0
8 279 -56 0
-8 -280 58 0
8 280 -58 0
-8 -281 60 0
8 281 -60 0
-8 -282 62 0
8 282 -62 0
-8 -283 64 0
8 283 -64 0
-8 -284 66 0
8 284 -66 0
-8 -285 68 0
8 285 -68 0
-8 -286 70 0
8 286 -70 0
-8 -287 72 0
8 287 -72 0
-8 -288 74 0
8 288 -74 0
-8 -289 76 0
8 289 -76 0
-8 -290 78 0
8 290 -78 0
-8 -291 80 0
8 291 -80 0
-8 -292 82 0
8 292 -82 0
-8 -293 84 0
8 293 -84 0
-8 -294 86 0
8 294 -86 0
-8 -295 88 0
8 295 -88 0
-8 -296 90 0
8 296 -90 0
-8 -297 92 0
8 297 -92 0
-8 -298 94 0
8 298 -94 0
-8 -299 96 0
8 299 -96 0
-8 -300 98 0
8 300 -98 0
-8 -301 100 0
8 301 -100 0
-8 -302 102 0
8 302 -102 0
-8 -303 104 0
8 303 -104 0
-10 -304 12 0
10 304 -12 0
-10 -305 14 0
10 305 -14 0
-10 -306 16 0
10 306 -16 0
-10 -307 18 0
10 307 -18 0
-10 -308 20 0
10 308 -20 0
-10 -309 22 0
10 309 -22 0
-10 -310 24 0
10 310 -24 0
-10 -311 26 0
10 311 -26 0
-10 -312 28 0
10 312 -28 0
-10 -313 30 0
10 313 -30 0
-10 -314 32 0
10 314 -32 0
-10 -315 34 0
10 315 -34 0
-10 -316 36 0
10 316 -36 0
-10 -317 38 0
10 317 -38 0
-10 -318 40 0
10 318 -40 0
-10 -319 42 0
10 319 -42 0
-10 -320 44 0
10 320 -44 0
-10 -321 46 0
10 321 -46 0
-10 -322 48 0
10 322 -48 0
-10 -323 50 0
10 323 -50 0
-10 -324 52 0
10 324 -52 0
-10 -325 54 0
10 325 -54 0
-10 -326 56 0
10 326 -56 0
-10 -327 58 0
10 327 -58 0
-10 -328 60 0
10 328 -60 0
-10 -329 62 0
10 329 -62 0
-10 -330 64 0
10 330 -64 0
-10 -331 66 0
10 331 -66 0
-10 -332 68 0
10 332 -68 0
-10 -333 70 0
10 333 -70 0
-10 -334 72 0
10 334 -72 0
-10 -335 74 0
10 335 -74 0
-10 -336 76 0
10 336 -76 0
-10 -337 78 0
10 337 -78 0
-10 -338 80 0
10 338 -80 0
-10 -339 82 0
10 339 -82 0
-10 -340 84 0
10 340 -84 0
-10 -341 86 0
10 341 -86 0
-10 -342 88 0
10 342 -88 0
-10 -343 90 0
10 343 -90 0
-10 -344 92 0
10 344 -92 0
-10 -345 94 0
10 345 -94 0
-10 -346 96 0
10 346 -96 0
-10 -347 98 0
10 347 -98 0
-10 -348 100 0
10 348 -100 0
-10 -349 102 0
10 349 -102 0
-10 -350 104 0
10 350 -104 0
-12 -351 14 0
12 351 -14 0
-12 -352 16 0
12 352 -16 0
-12 -353 18 0
12 353 -18 0
-12 -354 20 0
12 354 -20 0
-12 -355 22 0
12 355 -22 0
-12 -356 24 0
12 356 -24 0
-12 -357 26 0
12 357 -26 0
-12 -358 28 0
12 358 -28 0
-12 -359 30 0
12 359 -30 0
-12 -360 32 0
12 360 -32 0
-12 -361 34 0
12 361 -34 0
-12 -362 36 0
12 362 -36 0
-12 -363 38 0
12 363 -38 0
-12 -364 40 0
12 364 -40 0
-12 -365 42 0
12 365 -42 0
-12 -366 44 0
12 366 -44 0
-12 -367 46 0
12 367 -46 0
-12 -368 48 0
12 368 -48 0
-12 -369 50 0
12 369 -50 0
-12 -370 52 0
12 370 -52 0
-12 -371 54 0
12 371 -54 0
-12 -372 56 0
12 372 -56 0
-12 -373 58 0
12 373 -58 0
-12 -374 60 0
12 374 -60 0
-12 -375 62 0
12 375 -62 0
-12 -376 64 0
12 376 -64 0
-12 -377 66 0
12 377 -66 0
-12 -378 68 0
12 378 -68 0
-12 -379 70 0
12 379 -70 0
-12 -380 72 0
12 380 -72 0
-12 -381 74 0
12 381 -74 0
-12 -382 76 0
12 382 -76 0
-12 -383 78 0
12 383 -78 0
-12 -384 80 0
12 384 -80 0
-12 -385 82 0
12 385 -82 0
-12 -386 84 0
12 386 -84 0
-12 -387 86 0
12 387 -86 0
-12 -388 88 0
12 388 -88 0
-12 -389 90 0
12 389 -90 0
-12 -390 92 0
12 390 -92 0
-12 -391 94 0
12 391 -94 0
-12 -392 96 0
12 392 -96 0
-12 -393 98 0
12 393 -98 0
-12 -394 100 0
12 394 -100 0
-12 -395 102 0
12 395 -102 0
-12 -396 104 0
12 396 -104 0
-14 -397 16 0
14 397 -16 0
-14 -398 18 0
14 398 -18 0
-14 -399 20 0
14 399 -20 0
-14 -400 22 0
14 400 -22 0
-14 -401 24 0
14 401 -24 0
-14 -402 26 0
14 402 -26 0
-14 -403 28 0
14 403 -28 0
-14 -404 30 0
14 404 -30 0
-14 -405 32 0
14 405 -32 0
-14 -406 34 0
14 406 -34 0
-14 -407 36 0
14 407 -36 0
-14 -408 38 0
14 408 -38 0
-14 -409 40 0
14 409 -40 0
-14 -410 42 0
14 410 -42 0
-14 -411 44 0
14 411 -44 0
-14 -412 46 0
14 412 -46 0
-14 -413 48 0
14 413 -48 0
-14 -414 50 0
14 414 -50 0
-14 -415 52 0
14 415 -52 0
-14 -416 54 0
14 416 -54 0
-14 -417 56 0
14 417 -56 0
-14 -418 58 0
14 418 -58 0
-14 -419 60 0
14 419 -60 0
-14 -420 62 0
14 420 -62 0
-14 -421 64 0
14 421 -64 0
-14 -422 66 0
14 422 -66 0
-14 -423 68 0
14 423 -68 0
-14 -424 70 0
14 424 -70 0
-14 -425 72 0
14 425 -72 0
-14 -426 74 0
14 426 -74 0
-14 -427 76 0
14 427 -76 0
-14 -428 78 0
14 428 -78 0
-14 -429 80 0
14 429 -80 0
-14 -430 82 0
14 430 -82 0
-14 -431 84 0
14 431 -84 0
-14 -432 86 0
14 432 -86 0
-14 -433 88 0
14 433 -88 0
-14 -434 90 0
14 434 -90 0
-14 -435 92 0
14 435 -92 0
-14 -436 94 0
14 436 -94 0
-14 -437 96 0
14 437 -96 0
-14 -438 98 0
14 438 -98 0
-14 -439 100 0
14 439 -100 0
-14 -440 102 0
14 440 -102 0
-14 -441 104 0
14 441 -104 0
-16 -442 18 0
16 442 -18 0
-16 -443 20 0
16 443 -20 0
-16 -444 22 0
16 444 -22 0
-16 -445 24 0
16 445 -24 0
-16 -446 26 0
16 446 -26 0
-16 -447 28 0
16 447 -28 0
-16 -448 30 0
16 448 -30 0
-16 -449 32 0
16 449 -32 0
-16 -450 34 0
16 450 -34 0
-16 -451 36 0
16 451 -36 0
-16 -452 38 0
16 452 -38 0
-16 -453 40 0
16 453 -40 0
-16 -454 42 0
16 454 -42 0
-16 -455 44 0
16 455 -44 0
-16 -456 46 0
16 456 -46 0
-16 -457 48 0
16 457 -48 0
-16 -458 50 0
16 458 -50 0
-16 -459 52 0
16 459 -52 0
-16 -460 54 0
16 460 -54 0
-16 -461 56 0
16 461 -56 0
-16 -462 58 0
16 462 -58 0
-16 -463 60 0
16 463 -60 0
-16 -464 62 0
16 464 -62 0
-16 -465 64 0
16 465 -64 0
-16 -466 66 0
16 466 -66 0
-16 -467 68 0
16 467 -68 0
-16 -468 70 0
16 468 -70 0
-16 -469 72 0
16 469 -72 0
-16 -470 74 0
16 470 -74 0
-16 -471 76 0
16 471 -76 0
-16 -472 78 0
16 472 -78 0
-16 -473 80 0
16 473 -80 0
-16 -474 82 0
16 474 -82 0
-16 -475 84 0
16 475 -84 0
-16 -476 86 0
16 476 -86 0
-16 -477 88 0
16 477 -88 0
-16 -478 90 0
16 478 -90 0
-16 -479 92 0
16 479 -92 0
-16 -480 94 0
16 480 -94 0
-16 -481 96 0
16 481 -96 0
-16 -482 98 0
16 482 -98 0
-16 -483 100 0
16 483 -100 0
-16 -484 102 0
16 484 -102 0
-16 -485 104 0
16 485 -104 0
-18 -486 20 0
18 486 -20 0
-18 -487 22 0
18 487 -22 0
-18 -488 24 0
18 488 -24 0
-18 -489 26 0
18 489 -26 0
-18 -490 28 0
18 490 -28 0
-18 -491 30 0
18 491 -30 0
-18 -492 32 0
18 492 -32 0
-18 -493 34 0
18 493 -34 0
-18 -494 36 0
18 494 -36 0
-18 -495 38 0
18 495 -38 0
-18 -496 40 0
18 496 -40 0
-18 -497 42 0
18 497 -42 0
-18 -498 44 0
18 498 -44 0
-18 -499 46 0
18 499 -46 0
-18 -500 48 0
18 500 -48 0
-18 -501 50 0
18 501 -50 0
-18 -502 52 0
18 502 -52 0
-18 -503 54 0
18 503 -54 0
-18 -504 56 0
18 504 -56 0
-18 -505 58 0
18 505 -58 0
-18 -506 60 0
18 506 -60 0
-18 -507 62 0
18 507 -62 0
-18 -508 64 0
18 508 -64 0
-18 -509 66 0
18 509 -66 0
-18 -510 68 0
18 510 -68 0
-18 -511 70 0
18 511 -70 0
-18 -512 72 0
18 512 -72 0
-18 -513 74 0
18 513 -74 0
-18 -514 76 0
18 514 -76 0
-18 -515 78 0
18 515 -78 0
-18 -516 80 0
18 516 -80 0
-18 -517 82 0
18 517 -82 0
-18 -518 84 0
18 518 -84 0
-18 -519 86 0
18 519 -86 0
-18 -520 88 0
18 520 -88 0
-18 -521 90 0
18 521 -90 0
-18 -522 92 0
18 522 -92 0
-18 -523 94 0
18 523 -94 0
-18 -524 96 0
18 524 -96 0
-18 -525 98 0
18 525 -98 0
-18 -526 100 0
18 526 -100 0
-18 -527 102 0
18 527 -102 0
-18 -528 104 0
18 528 -104 0
-20 -529 22 0
20 529 -22 0
-20 -530 24 0
20 530 -24 0
-20 -531 26 0
20 531 -26 0
-20 -532 28 0
20 532 -28 0
-20 -533 30 0
20 533 -30 0
-20 -534 32 0
20 534 -32 0
-20 -535 34 0
20 535 -34 0
-20 -536 36 0
20 536 -36 0
-20 -537 38 0
20 537 -38 0
-20 -538 40 0
20 538 -40 0
-20 -539 42 0
20 539 -42 0
-20 -540 44 0
20 540 -44 0
-20 -541 46 0
20 541 -46 0
-20 -542 48 0
20 542 -48 0
-20 -543 50 0
20 543 -50 0
-20 -544 52 0
20 544 -52 0
-20 -545 54 0
20 545 -54 0
-20 -546 56 0
20 546 -56 0
-20 -547 58 0
20 547 -58 0
-20 -548 60 0
20 548 -60 0
-20 -549 62 0
20 549 -62 0
-20 -550 64 0
20 550 -64 0
-20 -551 66 0
20 551 -66 0
-20 -552 68 0
20 552 -68 0
-20 -553 70 0
20 553 -70 0
-20 -554 72 0
20 554 -72 0
-20 -555 74 0
20 555 -74 0
-20 -556 76 0
20 556 -76 0
-20 -557 78 0
20 557 -78 0
-20 -558 80 0
20 558 -80 0
-20 -559 82 0
20 559 -82 0
-20 -560 84 0
20 560 -84 0
-20 -561 86 0
20 561 -86 0
-20 -562 88 0
20 562 -88 0
-20 -563 90 0
20 563 -90 0
-20 -564 92 0
20 564 -92 0
-20 -565 94 0
20 565 -94 0
-20 -566 96 0
20 566 -96 0
-20 -567 98 0
20 567 -98 0
-20 -568 100 0
20 568 -100 0
-20 -569 102 0
20 569 -102 0
-20 -570 104 0
20 570 -104 0
-22 -571 24 0
22 571 -24 0
-22 -572 26 0
22 572 -26 0
-22 -573 28 0
22 573 -28 0
-22 -574 30 0
22 574 -30 0
-22 -575 32 0
22 575 -32 0
-22 -576 34 0
22 576 -34 0
-22 -577 36 0
22 577 -36 0
-22 -578 38 0
22 578 -38 0
-22 -579 40 0
22 579 -40 0
-22 -580 42 0
22 580 -42 0
-22 -581 44 0
22 581 -44 0
-22 -582 46 0
22 582 -46 0
-22 -583 48 0
22 583 -48 0
-22 -584 50 0
22 584 -50 0
-22 -585 52 0
22 585 -52 0
-22 -586 54 0
22 586 -54 0
-22 -587 56 0
22 587 -56 0
-22 -588 58 0
22 588 -58 0
-22 -589 60 0
22 589 -60 0
-22 -590 62 0
22 590 -62 0
-22 -591 64 0
22 591 -64 0
-22 -592 66 0
22 592 -66 0
-22 -593 68 0
22 593 -68 0
-22 -594 70 0
22 594 -70 0
-22 -595 72 0
22 595 -72 0
-22 -596 74 0
22 596 -74 0
-22 -597 76 0
22 597 -76 0
-22 -598 78 0
22 598 -78 0
-22 -599 80 0
22 599 -80 0
-22 -600 82 0
22 600 -82 0
-22 -601 84 0
22 601 -84 0
-22 -602 86 0
22 602 -86 0
-22 -603 88 0
22 603 -88 0
-22 -604 90 0
22 604 -90 0
-22 -605 92 0
22 605 -92 0
-22 -606 94 0
22 606 -94 0
-22 -607 96 0
22 607 -96 0
-22 -608 98 0
22 608 -98 0
-22 -609 100 0
22 609 -100 0
-22 -610 102 0
22 610 -102 0
-22 -611 104 0
22 611 -104 0
-24 -612 26 0
24 612 -26 0
-24 -613 28 0
24 613 -28 0
-24 -614 30 0
24 614 -30 0
-24 -615 32 0
24 615 -32 0
-24 -616 34 0
24 616 -34 0
-24 -617 36 0
24 617 -36 0
-24 -618 38 0
24 618 -38 0
-24 -619 40 0
24 619 -40 0
-24 -620 42 0
24 620 -42 0
-24 -621 44 0
24 621 -44 0
-24 -622 46 0
24 622 -46 0
-24 -623 48 0
24 623 -48 0
-24 -624 50 0
24 624 -50 0
-24 -625 52 0
24 625 -52 0
-24 -626 54 0
24 626 -54 0
-24 -627 56 0
24 627 -56 0
-24 -628 58 0
24 628 -58 0
-24 -629 60 0
24 629 -60 0
-24 -630 62 0
24 630 -62 0
-24 -631 64 0
24 631 -64 0
-24 -632 66 0
24 632 -66 0
-24 -633 68 0
24 633 -68 0
-24 -634 70 0
24 634 -70 0
-24 -635 72 0
24 635 -72 0
-24 -636 74 0
24 636 -74 0
-24 -637 76 0
24 637 -76 0
-24 -638 78 0
24 638 -78 0
-24 -639 80 0
24 639 -80 0
-24 -640 82 0
24 640 -82 0
-24 -641 84 0
24 641 -84 0
-24 -642 86 0
24 642 -86 0
-24 -643 88 0
24 643 -88 0
-24 -644 90 0
24 644 -90 0
-24 -645 92 0
24 645 -92 0
-24 -646 94 0
24 646 -94 0
-24 -647 96 0
24 647 -96 0
-24 -648 98 0
24 648 -98 0
-24 -649 100 0
24 649 -100 0
-24 -650 102 0
24 650 -102 0
-24 -651 104 0
24 651 -104 0
-26 -652 28 0
26 652 -28 0
-26 -653 30 0
26 653 -30 0
-26 -654 32 0
26 654 -32 0
-26 -655 34 0
26 655 -34 0
-26 -656 36 0
26 656 -36 0
-26 -657 38 0
26 657 -38 0
-26 -658 40 0
26 658 -40 0
-26 -659 42 0
26 659 -42 0
-26 -660 44 0
26 660 -44 0
-26 -661 46 0
26 661 -46 0
-26 -662 48 0
26 662 -48 0
-26 -663 50 0
26 663 -50 0
-26 -664 52 0
26 664 -52 0
-26 -665 54 0
26 665 -54 0
-26 -666 56 0
26 666 -56 0
-26 -667 58 0
26 667 -58 0
-26 -668 60 0
26 668 -60 0
-26 -669 62 0
26 669 -62 0
-26 -670 64 0
26 670 -64 0
-26 -671 66 0
26 671 -66 0
-26 -672 68 0
26 672 -68 0
-26 -673 70 0
26 673 -70 0
-26 -674 72 0
26 674 -72 0
-26 -675 74 0
26 675 -74 0
-26 -676 76 0
26 676 -76 0
-26 -677 78 0
26 677 -78 0
-26 -678 80 0
26 678 -80 0
-26 -679 82 0
26 679 -82 0
-26 -680 84 0
26 680 -84 0
-26 -681 86 0
26 681 -86 0
-26 -682 88 0
26 682 -88 0
-26 -683 90 0
26 683 -90 0
-26 -684 92 0
26 684 -92 0
-26 -685 94 0
26 685 -94 0
-26 -686 96 0
26 686 -96 0
-26 -687 98 0
26 687 -98 0
-26 -688 100 0
26 688 -100 0
-26 -689 102 0
26 689 -102 0
-26 -690 104 0
26 690 -104 0
-28 -691 30 0
28 691 -30 0
-28 -692 32 0
28 692 -32 0
-28 -693 34 0
28 693 -34 0
-28 -694 36 0
28 694 -36 0
-28 -695 38 0
28 695 -38 0
-28 -696 40 0
28 696 -40 0
-28 -697 42 0
28 697 -42 0
-28 -698 44 0
28 698 -44 0
-28 -699 46 0
28 699 -46 0
-28 -700 48 0
28 700 -48 0
-28 -701 50 0
28 701 -50 0
-28 -702 52 0
28 702 -52 0
-28 -703 54 0
28 703 -54 0
-28 -704 56 0
28 704 -56 0
-28 -705 58 0
28 705 -58 0
-28 -706 60 0
28 706 -60 0
-28 -707 62 0
28 707 -62 0
-28 -708 64 0
28 708 -64 0
-28 -709 66 0
28 709 -66 0
-28 -710 68 0
28 710 -68 0
-28 -711 70 0
28 711 -70 0
-28 -712 72 0
28 712 -72 0
-28 -713 74 0
28 713 -74 0
-28 -714 76 0
28 714 -76 0
-28 -715 78 0
28 715 -78 0
-28 -716 80 0
28 716 -80 0
-28 -717 82 0
28 717 -82 0
-28 -718 84 0
28 718 -84 0
-28 -719 86 0
28 719 -86 0
-28 -720 88 0
28 720 -88 0
-28 -721 90 0
28 721 -90 0
-28 -722 92 0
28 722 -92 0
-28 -723 94 0
28 723 -94 0
-28 -724 96 0
28 724 -96 0
-28 -725 98 0
28 725 -98 0
-28 -726 100 0
28 726 -100 0
-28 -727 102 0
28 727 -102 0
-28 -728 104 0
28 728 -104 0
-30 -729 32 0
30 729 -32 0
-30 -730 34 0
30 730 -34 0
-30 -731 36 0
30 731 -36 0
-30 -732 38 0
30 732 -38 0
-30 -733 40 0
30 733 -40 0
-30 -734 42 0
30 734 -42 0
-30 -735 44 0
30 735 -44 0
-30 -736 46 0
30 736 -46 0
-30 -737 48 0
30 737 -48 0
-30 -738 50 0
30 738 -50 0
-30 -739 52 0
30 739 -52 0
-30 -740 54 0
30 740 -54 0
-30 -741 56 0
30 741 -56 0
-30 -742 58 0
30 742 -58 0
-30 -743 60 0
30 743 -60 0
-30 -744 62 0
30 744 -62 0
-30 -745 64 0
30 745 -64 0
-30 -746 66 0
30 746 -66 0
-30 -747 68 0
30 747 -68 0
-30 -748 70 0
30 748 -70 0
-30 -749 72 0
30 749 -72 0
-30 -750 74 0
30 750 -74 0
-30 -751 76 0
30 751 -76 0
-30 -752 78 0
30 752 -78 0
-30 -753 80 0
30 753 -80 0
-30 -754 82 0
30 754 -82 0
-30 -755 84 0
30 755 -84 0
-30 -756 86 0
30 756 -86 0
-30 -757 88 0
30 757 -88 0
-30 -758 90 0
30 758 -90 0
-30 -759 92 0
30 759 -92 0
-30 -760 94 0
30 760 -94 0
-30 -761 96 0
30 761 -96 0
-30 -762 98 0
30 762 -98 0
-30 -763 100 0
30 763 -100 0
-30 -764 102 0
30 764 -102 0
-30 -765 104 0
30 765 -104 0
-32 -766 34 0
32 766 -34 0
-32 -767 36 0
32 767 -36 0
-32 -768 38 0
32 768 -38 0
-32 -769 40 0
32 769 -40 0
-32 -770 42 0
32 770 -42 0
-32 -771 44 0
32 771 -44 0
-32 -772 46 0
32 772 -46 0
-32 -773 48 0
32 773 -48 0
-32 -774 50 0
32 774 -50 0
-32 -775 52 0
32 775 -52 0
-32 -776 54 0
32 776 -54 0
-32 -777 56 0
32 777 -56 0
-32 -778 58 0
32 778 -58 0
-32 -779 60 0
32 779 -60 0
-32 -780 62 0
32 780 -62 0
-32 -781 64 0
32 781 -64 0
-32 -782 66 0
32 782 -66 0
-32 -783 68 0
32 783 -68 0
-32 -784 70 0
32 784 -70 0
-32 -785 72 0
32 785 -72 0
-32 -786 74 0
32 786 -74 0
-32 -787 76 0
32 787 -76 0
-32 -788 78 0
32 788 -78 0
-32 -789 80 0
32 789 -80 0
-32 -790 82 0
32 790 -82 0
-32 -791 84 0
32 791 -84 0
-32 -792 86 0
32 792 -86 0
-32 -793 88 0
32 793 -88 0
-32 -794 90 0
32 794 -90 0
-32 -795 92 0
32 795 -92 0
-32 -796 94 0
32 796 -94 0
-32 -797 96 0
32 797 -96 0
-32 -798 98 0
32 798 -98 0
-32 -799 100 0
32 799 -100 0
-32 -800 102 0
32 800 -102 0
-32 -801 104 0
32 801 -104 0
-34 -802 36 0
34 802 -36 0
-34 -803 38 0
34 803 -38 0
-34 -804 40 0
34 804 -40 0
-34 -805 42 0
34 805 -42 0
-34 -806 44 0
34 806 -44 0
-34 -807 46 0
34 807 -46 0
-34 -808 48 0
34 808 -48 0
-34 -809 50 0
34 809 -50 0
-34 -810 52 0
34 810 -52 0
-34 -811 54 0
34 811 -54 0
-34 -812 56 0
34 812 -56 0
-34 -813 58 0
34 813 -58 0
-34 -814 60 0
34 814 -60 0
-34 -815 62 0
34 815 -62 0
-34 -816 64 0
34 816 -64 0
-34 -817 66 0
34 817 -66 0
-34 -818 68 0
34 818 -68 0
-34 -819 70 0
34 819 -70 0
-34 -820 72 0
34 820 -72 0
-34 -821 74 0
34 821 -74 0
-34 -822 76 0
34 822 -76 0
-34 -823 78 0
34 823 -78 0
-34 -824 80 0
34 824 -80 0
-34 -825 82 0
34 825 -82 0
-34 -826 84 0
34 826 -84 0
-34 -827 86 0
34 827 -86 0
-34 -828 88 0
34 828 -88 0
-34 -829 90 0
34 829 -90 0
-34 -830 92 0
34 830 -92 0
-34 -831 94 0
34 831 -94 0
-34 -832 96 0
34 832 -96 0
-34 -833 98 0
34 833 -98 0
-34 -834 100 0
34 834 -100 0
-34 -835 102 0
34 835 -102 0
-34 -836 104 0
34 836 -104 0
-36 -837 38 0
36 837 -38 0
-36 -838 40 0
36 838 -40 0
-36 -839 42 0
36 839 -42 0
-36 -840 44 0
36 840 -44 0
-36 -841 46 0
36 841 -46 0
-36 -842 48 0
36 842 -48 0
-36 -843 50 0
36 843 -50 0
-36 -844 52 0
36 844 -52 0
-36 -845 54 0
36 845 -54 0
-36 -846 56 0
36 846 -56 0
-36 -847 58 0
36 847 -58 0
-36 -848 60 0
36 848 -60 0
-36 -849 62 0
36 849 -62 0
-36 -850 64 0
36 850 -64 0
-36 -851 66 0
36 851 -66 0
-36 -852 68 0
36 852 -68 0
-36 -853 70 0
36 853 -70 0
-36 -854 72 0
36 854 -72 0
-36 -855 74 0
36 855 -74 0
-36 -856 76 0
36 856 -76 0
-36 -857 78 0
36 857 -78 0
-36 -858 80 0
36 858 -80 0
-36 -859 82 0
36 859 -82 0
-36 -860 84 0
36 860 -84 0
-36 -861 86 0
36 861 -86 0
-36 -862 88 0
36 862 -88 0
-36 -863 90 0
36 863 -90 0
-36 -864 92 0
36 864 -92 0
-36 -865 94 0
36 865 -94 0
-36 -866 96 0
36 866 -96 0
-36 -867 98 0
36 867 -98 0
-36 -868 100 0
36 868 -100 0
-36 -869 102 0
36 869 -102 0
-36 -870 104 0
36 870 -104 0
-38 -871 40 0
38 871 -40 0
-38 -872 42 0
38 872 -42 0
-38 -873 44 0
38 873 -44 0
-38 -874 46 0
38 874 -46 0
-38 -875 48 0
38 875 -48 0
-38 -876 50 0
38 876 -50 0
-38 -877 52 0
38 877 -52 0
-38 -878 54 0
38 878 -54 0
-38 -879 56 0
38 879 -56 0
-38 -880 58 0
38 880 -58 0
-38 -881 60 0
38 881 -60 0
-38 -882 62 0
38 882 -62 0
-38 -883 64 0
38 883 -64 0
-38 -884 66 0
38 884 -66 0
-38 -885 68 0
38 885 -68 0
-38 -886 70 0
38 886 -70 0
-38 -887 72 0
38 887 -72 0
-38 -888 74 0
38 888 -74 0
-38 -889 76 0
38 889 -76 0
-38 -890 78 0
38 890 -78 0
-38 -891 80 0
38 891 -80 0
-38 -892 82 0
38 892 -82 0
-38 -893 84 0
38 893 -84 0
-38 -894 86 0
38 894 -86 0
-38 -895 88 0
38 895 -88 0
-38 -896 90 0
38 896 -90 0
-38 -897 92 0
38 897 -92 0
-38 -898 94 0
38 898 -94 0
-38 -899 96 0
38 899 -96 0
-38 -900 98 0
38 900 -98 0
-38 -901 100 0
38 901 -100 0
-38 -902 102 0
38 902 -102 0
-38 -903 104 0
38 903 -104 0
-40 -904 42 0
40 904 -42 0
-40 -905 44 0
40 905 -44 0
-40 -906 46 0
40 906 -46 0
-40 -907 48 0
40 907 -48 0
-40 -908 50 0
40 908 -50 0
-40 -909 52 0
40 909 -52 0
-40 -910 54 0
40 910 -54 0
-40 -911 56 0
40 911 -56 0
-40 -912 58 0
40 912 -58 0
-40 -913 60 0
40 913 -60 0
-40 -914 62 0
40 914 -62 0
-40 -915 64 0
40 915 -64 0
-40 -916 66 0
40 916 -66 0
-40 -917 68 0
40 917 -68 0
-40 -918 70 0
40 918 -70 0
-40 -919 72 0
40 919 -72 0
-40 -920 74 0
40 920 -74 0
-40 -921 76 0
40 921 -76 0
-40 -922 78 0
40 922 -78 0
-40 -923 80 0
40 923 -80 0
-40 -924 82 0
40 924 -82 0
-40 -925 84 0
40 925 -84 0
-40 -926 86 0
40 926 -86 0
-40 -927 88 0
40 927 -88 0
-40 -928 90 0
40 928 -90 0
-40 -929 92 0
40 929 -92 0
-40 -930 94 0
40 930 -94 0
-40 -931 96 0
40 931 -96 0
-40 -932 98 0
40 932 -98 0
-40 -933 100 0
40 933 -100 0
-40 -934 102 0
40 934 -102 0
-40 -935 104 0
40 935 -104 0
-42 -936 44 0
42 936 -44 0
-42 -937 46 0
42 937 -46 0
-42 -938 48 0
42 938 -48 0
-42 -939 50 0
42 939 -50 0
-42 -940 52 0
42 940 -52 0
-42 -941 54 0
42 941 -54 0
-42 -942 56 0
42 942 -56 0
-42 -943 58 0
42 943 -58 0
-42 -944 60 0
42 944 -60 0
-42 -945 62 0
42 945 -62 0
-42 -946 64 0
42 946 -64 0
-42 -947 66 0
42 947 -66 0
-42 -948 68 0
42 948 -68 0
-42 -949 70 0
42 949 -70 0
-42 -950 72 0
42 950 -72 0
-42 -951 74 0
42 951 -74 0
-42 -952 76 0
42 952 -76 0
-42 -953 78 0
42 953 -78 0
-42 -954 80 0
42 954 -80 0
-42 -955 82 0
42 955 -82 0
-42 -956 84 0
42 956 -84 0
-42 -957 86 0
42 957 -86 0
-42 -958 88 0
42 958 -88 0
-42 -959 90 0
42 959 -90 0
-42 -960 92 0
42 960 -92 0
-42 -961 94 0
42 961 -94 0
-42 -962 96 0
42 962 -96 0
-42 -963 98 0
42 963 -98 0
-42 -964 100 0
42 964 -100 0
-42 -965 102 0
42 965 -102 0
-42 -966 104 0
42 966 -104 0
-44 -967 46 0
44 967 -46 0
-44 -968 48 0
44 968 -48 0
-44 -969 50 0
44 969 -50 0
-44 -970 52 0
44 970 -52 0
-44 -971 54 0
44 971 -54 0
-44 -972 56 0
44 972 -56 0
-44 -973 58 0
44 973 -58 0
-44 -974 60 0
44 974 -60 0
-44 -975 62 0
44 975 -62 0
-44 -976 64 0
44 976 -64 0
-44 -977 66 0
44 977 -66 0
-44 -978 68 0
44 978 -68 0
-44 -979 70 0
44 979 -70 0
-44 -980 72 0
44 980 -72 0
-44 -981 74 0
44 981 -74 0
-44 -982 76 0
44 982 -76 0
-44 -983 78 0
44 983 -78 0
-44 -984 80 0
44 984 -80 0
-44 -985 82 0
44 985 -82 0
-44 -986 84 0
44 986 -84 0
-44 -987 86 0
44 987 -86 0
-44 -988 88 0
44 988 -88 0
-44 -989 90 0
44 989 -90 0
-44 -990 92 0
44 990 -92 0
-44 -991 94 0
44 991 -94 0
-44 -992 96 0
44 992 -96 0
-44 -993 98 0
44 993 -98 0
-44 -994 100 0
44 994 -100 0
-44 -995 102 0
44 995 -102 0
-44 -996 104 0
44 996 -104 0
-46 -997 48 0
46 997 -48 0
-46 -998 50 0
46 998 -50 0
-46 -999 52 0
46 999 -52 0
-46 -1000 54 0
46 1000 -54 0
-46 -1001 56 0
46 1001 -56 0
-46 -1002 58 0
46 1002 -58 0
-46 -1003 60 0
46 1003 -60 0
-46 -1004 62 0
46 1004 -62 0
-46 -1005 64 0
46 1005 -64 0
-46 -1006 66 0
46 1006 -66 0
-46 -1007 68 0
46 1007 -68 0
-46 -1008 70 0
46 1008 -70 0
-46 -1009 72 0
46 1009 -72 0
-46 -1010 74 0
46 1010 -74 0
-46 -1011 76 0
46 1011 -76 0
-46 -1012 78 0
46 1012 -78 0
-46 -1013 80 0
46 1013 -80 0
-46 -1014 82 0
46 1014 -82 0
-46 -1015 84 0
46 1015 -84 0
-46 -1016 86 0
46 1016 -86 0
-46 -1017 88 0
46 1017 -88 0
-46 -1018 90 0
46 1018 -90 0
-46 -1019 92 0
46 1019 -92 0
-46 -1020 94 0
46 1020 -94 0
-46 -1021 96 0
46 1021 -96 0
-46 -1022 98 0
46 1022 -98 0
-46 -1023 100 0
46 1023 -100 0
-46 -1024 102 0
46 1024 -102 0
-46 -1025 104 0
46 1025 -104 0
-48 -1026 50 0
48 1026 -50 0
-48 -1027 52 0
48 1027 -52 0
-48 -1028 54 0
48 1028 -54 0
-48 -1029 56 0
48 1029 -56 0
-48 -1030 58 0
48 1030 -58 0
-48 -1031 60 0
48 1031 -60 0
-48 -1032 62 0
48 1032 -62 0
-48 -1033 64 0
48 1033 -64 0
-48 -1034 66 0
48 1034 -66 0
-48 -1035 68 0
48 1035 -68 0
-48 -1036 70 0
48 1036 -70 0
-48 -1037 72 0
48 1037 -72 0
-48 -1038 74 0
48 1038 -74 0
-48 -1039 76 0
48 1039 -76 0
-48 -1040 78 0
48 1040 -78 0
-48 -1041 80 0
48 1041 -80 0
-48 -1042 82 0
48 1042 -82 0
-48 -1043 84 0
48 1043 -84 0
-48 -1044 86 0
48 1044 -86 0
-48 -1045 88 0
48 1045 -88 0
-48 -1046 90 0
48 1046 -90 0
-48 -1047 92 0
48 1047 -92 0
-48 -1048 94 0
48 1048 -94 0
-48 -1049 96 0
48 1049 -96 0
-48 -1050 98 0
48 1050 -98 0
-48 -1051 100 0
48 1051 -100 0
-48 -1052 102 0
48 1052 -102 0
-48 -1053 104 0
48 1053 -104 0
-50 -1054 52 0
50 1054 -52 0
-50 -1055 54 0
50 1055 -54 0
-50 -1056 56 0
50 1056 -56 0
-50 -1057 58 0
50 1057 -58 0
-50 -1058 60 0
50 1058 -60 0
-50 -1059 62 0
50 1059 -62 0
-50 -1060 64 0
50 1060 -64 0
-50 -1061 66 0
50 1061 -66 0
-50 -1062 68 0
50 1062 -68 0
-50 -1063 70 0
50 1063 -70 0
-50 -1064 72 0
50 1064 -72 0
-50 -1065 74 0
50 1065 -74 0
-50 -1066 76 0
50 1066 -76 0
-50 -1067 78 0
50 1067 -78 0
-50 -1068 80 0
50 1068 -80 0
-50 -1069 82 0
50 1069 -82 0
-50 -1070 84 0
50 1070 -84 0
-50 -1071 86 0
50 1071 -86 0
-50 -1072 88 0
50 1072 -88 0
-50 -1073 90 0
50 1073 -90 0
-50 -1074 92 0
50 1074 -92 0
-50 -1075 94 0
50 1075 -94 0
-50 -1076 96 0
50 1076 -96 0
-50 -1077 98 0
50 1077 -98 0
-50 -1078 100 0
50 1078 -100 0
-50 -1079 102 0
50 1079 -102 0
-50 -1080 104 0
50 1080 -104 0
-52 -1081 54 0
52 1081 -54 0
-52 -1082 56 0
52 1082 -56 0
-52 -1083 58 0
52 1083 -58 0
-52 -1084 60 0
52 1084 -60 0
-52 -1085 62 0
52 1085 -62 0
-52 -1086 64 0
52 1086 -64 0
-52 -1087 66 0
52 1087 -66 0
-52 -1088 68 0
52 1088 -68 0
-52 -1089 70 0
52 1089 -70 0
-52 -1090 72 0
52 1090 -72 0
-52 -1091 74 0
52 1091 -74 0
-52 -1092 76 0
52 1092 -76 0
-52 -1093 78 0
52 1093 -78 0
-52 -1094 80 0
52 1094 -80 0
-52 -1095 82 0
52 1095 -82 0
-52 -1096 84 0
52 1096 -84 0
-52 -1097 86 0
52 1097 -86 0
-52 -1098 88 0
52 1098 -88 0
-52 -1099 90 0
52 1099 -90 0
-52 -1100 92 0
52 1100 -92 0
-52 -1101 94 0
52 1101 -94 0
-52 -1102 96 0
52 1102 -96 0
-52 -1103 98 0
52 1103 -98 0
-52 -1104 100 0
52 1104 -100 0
-52 -1105 102 0
52 1105 -102 0
-52 -1106 104 0
52 1106 -104 0
-54 -1107 56 0
54 1107 -56 0
-54 -1108 58 0
54 1108 -58 0
-54 -1109 60 0
54 1109 -60 0
-54 -1110 62 0
54 1110 -62 0
-54 -1111 64 0
54 1111 -64 0
-54 -1112 66 0
54 1112 -66 0
-54 -1113 68 0
54 1113 -68 0
-54 -1114 70 0
54 1114 -70 0
-54 -1115 72 0
54 1115 -72 0
-54 -1116 74 0
54 1116 -74 0
-54 -1117 76 0
54 1117 -76 0
-54 -1118 78 0
54 1118 -78 0
-54 -1119 80 0
54 1119 -80 0
-54 -1120 82 0
54 1120 -82 0
-54 -1121 84 0
54 1121 -84 0
-54 -1122 86 0
54 1122 -86 0
-54 -1123 88 0
54 1123 -88 0
-54 -1124 90 0
54 1124 -90 0
-54 -1125 92 0
54 1125 -92 0
-54 -1126 94 0
54 1126 -94 0
-54 -1127 96 0
54 1127 -96 0
-54 -1128 98 0
54 1128 -98 0
-54 -1129 100 0
54 1129 -100 0
-54 -1130 102 0
54 1130 -102 0
-54 -1131 104 0
54 1131 -104 0
-56 -1132 58 0
56 1132 -58 0
-56 -1133 60 0
56 1133 -60 0
-56 -1134 62 0
56 1134 -62 0
-56 -1135 64 0
56 1135 -64 0
-56 -1136 66 0
56 1136 -66 0
-56 -1137 68 0
56 1137 -68 0
-56 -1138 70 0
56 1138 -70 0
-56 -1139 72 0
56 1139 -72 0
-56 -1140 74 0
56 1140 -74 0
-56 -1141 76 0
56 1141 -76 0
-56 -1142 78 0
56 1142 -78 0
-56 -1143 80 0
56 1143 -80 0
-56 -1144 82 0
56 1144 -82 0
-56 -1145 84 0
56 1145 -84 0
-56 -1146 86 0
56 1146 -86 0
-56 -1147 88 0
56 1147 -88 0
-56 -1148 90 0
56 1148 -90 0
-56 -1149 92 0
56 1149 -92 0
-56 -1150 94 0
56 1150 -94 0
-56 -1151 96 0
56 1151 -96 0
-56 -1152 98 0
56 1152 -98 0
-56 -1153 100 0
56 1153 -100 0
-56 -1154 102 0
56 1154 -102 0
-56 -1155 104 0
56 1155 -104 0
-58 -1156 60 0
58 1156 -60 0
-58 -1157 62 0
58 1157 -62 0
-58 -1158 64 0
58 1158 -64 0
-58 -1159 66 0
58 1159 -66 0
-58 -1160 68 0
58 1160 -68 0
-58 -1161 70 0
58 1161 -70 0
-58 -1162 72 0
58 1162 -72 0
-58 -1163 74 0
58 1163 -74 0
-58 -1164 76 0
58 1164 -76 0
-58 -1165 78 0
58 1165 -78 0
-58 -1166 80 0
58 1166 -80 0
-58 -1167 82 0
58 1167 -82 0
-58 -1168 84 0
58 1168 -84 0
-58 -1169 86 0
58 1169 -86 0
-58 -1170 88 0
58 1170 -88 0
-58 -1171 90 0
58 1171 -90 0
-58 -1172 92 0
58 1172 -92 0
-58 -1173 94 0
58 1173 -94 0
-58 -1174 96 0
58 1174 -96 0
-58 -1175 98 0
58 1175 -98 0
-58 -1176 100 0
58 1176 -100 0
-58 -1177 102 0
58 1177 -102 0
-58 -1178 104 0
58 1178 -104 0
-60 -1179 62 0
60 1179 -62 0
-60 -1180 64 0
60 1180 -64 0
-60 -1181 66 0
60 1181 -66 0
-60 -1182 68 0
60 1182 -68 0
-60 -1183 70 0
60 1183 -70 0
-60 -1184 72 0
60 1184 -72 0
-60 -1185 74 0
60 1185 -74 0
-60 -1186 76 0
60 1186 -76 0
-60 -1187 78 0
60 1187 -78 0
-60 -1188 80 0
60 1188 -80 0
-60 -1189 82 0
60 1189 -82 0
-60 -1190 84 0
60 1190 -84 0
-60 -1191 86 0
60 1191 -86 0
-60 -1192 88 0
60 1192 -88 0
-60 -1193 90 0
60 1193 -90 0
-60 -1194 92 0
60 1194 -92 0
-60 -1195 94 0
60 1195 -94 0
-60 -1196 96 0
60 1196 -96 0
-60 -1197 98 0
60 1197 -98 0
-60 -1198 100 0
60 1198 -100 0
-60 -1199 102 0
60 1199 -102 0
-60 -1200 104 0
60 1200 -104 0
-62 -1201 64 0
62 1201 -64 0
-62 -1202 66 0
62 1202 -66 0
-62 -1203 68 0
62 1203 -68 0
-62 -1204 70 0
62 1204 -70 0
-62 -1205 72 0
62 1205 -72 0
-62 -1206 74 0
62 1206 -74 0
-62 -1207 76 0
62 1207 -76 0
-62 -1208 78 0
62 1208 -78 0
-62 -1209 80 0
62 1209 -80 0
-62 -1210 82 0
62 1210 -82 0
-62 -1211 84 0
62 1211 -84 0
-62 -1212 86 0
62 1212 -86 0
-62 -1213 88 0
62 1213 -88 0
-62 -1214 90 0
62 1214 -90 0
-62 -1215 92 0
62 1215 -92 0
-62 -1216 94 0
62 1216 -94 0
-62 -1217 96 0
62 1217 -96 0
-62 -1218 98 0
62 1218 -98 0
-62 -1219 100 0
62 1219 -100 0
-62 -1220 102 0
62 1220 -102 0
-62 -1221 104 0
62 1221 -104 0
-64 -1222 66 0
64 1222 -66 0
-64 -1223 68 0
64 1223 -68 0
-64 -1224 70 0
64 1224 -70 0
-64 -1225 72 0
64 1225 -72 0
-64 -1226 74 0
64 1226 -74 0
-64 -1227 76 0
64 1227 -76 0
-64 -1228 78 0
64 1228 -78 0
-64 -1229 80 0
64 1229 -80 0
-64 -1230 82 0
64 1230 -82 0
-64 -1231 84 0
64 1231 -84 0
-64 -1232 86 0
64 1232 -86 0
-64 -1233 88 0
64 1233 -88 0
-64 -1234 90 0
64 1234 -90 0
-64 -1235 92 0
64 1235 -92 0
-64 -1236 94 0
64 1236 -94 0
-64 -1237 96 0
64 1237 -96 0
-64 -1238 98 0
64 1238 -98 0
-64 -1239 100 0
64 1239 -100 0
-64 -1240 102 0
64 1240 -102 0
-64 -1241 104 0
64 1241 -104 0
-66 -1242 68 0
66 1242 -68 0
-66 -1243 70 0
66 1243 -70 0
-66 -1244 72 0
66 1244 -72 0
-66 -1245 74 0
66 1245 -74 0
-66 -1246 76 0
66 1246 -76 0
-66 -1247 78 0
66 1247 -78 0
-66 -1248 80 0
66 1248 -80 0
-66 -1249 82 0
66 1249 -82 0
-66 -1250 84 0
66 1250 -84 0
-66 -1251 86 0
66 1251 -86 0
-66 -1252 88 0
66 1252 -88 0
-66 -1253 90 0
66 1253 -90 0
-66 -1254 92 0
66 1254 -92 0
-66 -1255 94 0
66 1255 -94 0
-66 -1256 96 0
66 1256 -96 0
-66 -1257 98 0
66 1257 -98 0
-66 -1258 100 0
66 1258 -100 0
-66 -1259 102 0
66 1259 -102 0
-66 -1260 104 0
66 1260 -104 0
-68 -1261 70 0
68 1261 -70 0
-68 -1262 72 0
68 1262 -72 0
-68 -1263 74 0
68 1263 -74 0
-68 -1264 76 0
68 1264 -76 0
-68 -1265 78 0
68 1265 -78 0
-68 -1266 80 0
68 1266 -80 0
-68 -1267 82 0
68 1267 -82 0
-68 -1268 84 0
68 1268 -84 0
-68 -1269 86 0
68 1269 -86 0
-68 -1270 88 0
68 1270 -88 0
-68 -1271 90 0
68 1271 -90 0
-68 -1272 92 0
68 1272 -92 0
-68 -1273 94 0
68 1273 -94 0
-68 -1274 96 0
68 1274 -96 0
-68 -1275 98 0
68 1275 -98 0
-68 -1276 100 0
68 1276 -100 0
-68 -1277 102 0
68 1277 -102 0
-68 -1278 104 0
68 1278 -104 0
-70 -1279 72 0
70 1279 -72 0
-70 -1280 74 0
70 1280 -74 0
-70 -1281 76 0
70 1281 -76 0
-70 -1282 78 0
70 1282 -78 0
-70 -1283 80 0
70 1283 -80 0
-70 -1284 82 0
70 1284 -82 0
-70 -1285 84 0
70 1285 -84 0
-70 -1286 86 0
70 1286 -86 0
-70 -1287 88 0
70 1287 -88 0
-70 -1288 90 0
70 1288 -90 0
-70 -1289 92 0
70 1289 -92 0
-70 -1290 94 0
70 1290 -94 0
-70 -1291 96 0
70 1291 -96 0
-70 -1292 98 0
70 1292 -98 0
-70 -1293 100 0
70 1293 -100 0
-70 -1294 102 0
70 1294 -102 0
-70 -1295 104 0
70 1295 -104 0
-72 -1296 74 0
72 1296 -74 0
-72 -1297 76 0
72 1297 -76 0
-72 -1298 78 0
72 1298 -78 0
-72 -1299 80 0
72 1299 -80 0
-72 -1300 82 0
72 1300 -82 0
-72 -1301 84 0
72 1301 -84 0
-72 -1302 86 0
72 1302 -86 0
-72 -1303 88 0
72 1303 -88 0
-72 -1304 90 0
72 1304 -90 0
-72 -1305 92 0
72 1305 -92 0
-72 -1306 94 0
72 1306 -94 0
-72 -1307 96 0
72 1307 -96 0
-72 -1308 98 0
72 1308 -98 0
-72 -1309 100 0
72 1309 -100 0
-72 -1310 102 0
72 1310 -102 0
-72 -1311 104 0
72 1311 -104 0
-74 -1312 76 0
74 1312 -76 0
-74 -1313 78 0
74 1313 -78 0
-74 -1314 80 0
74 1314 -80 0
-74 -1315 82 0
74 1315 -82 0
-74 -1316 84 0
74 1316 -84 0
-74 -1317 86 0
74 1317 -86 0
-74 -1318 88 0
74 1318 -88 0
-74 -1319 90 0
74 1319 -90 0
-74 -1320 92 0
74 1320 -92 0
-74 -1321 94 0
74 1321 -94 0
-74 -1322 96 0
74 1322 -96 0
-74 -1323 98 0
74 1323 -98 0
-74 -1324 100 0
74 1324 -100 0
-74 -1325 102 0
74 1325 -102 0
-74 -1326 104 0
74 1326 -104 0
-76 -1327 78 0
76 1327 -78 0
-76 -1328 80 0
76 1328 -80 0
-76 -1329 82 0
76 1329 -82 0
-76 -1330 84 0
76 1330 -84 0
-76 -1331 86 0
76 1331 -86 0
-76 -1332 88 0
76 1332 -88 0
-76 -1333 90 0
76 1333 -90 0
-76 -1334 92 0
76 1334 -92 0
-76 -1335 94 0
76 1335 -94 0
-76 -1336 96 0
76 1336 -96 0
-76 -1337 98 0
76 1337 -98 0
-76 -1338 100 0
76 1338 -100 0
-76 -1339 102 0
76 1339 -102 0
-76 -1340 104 0
76 1340 -104 0
-78 -1341 80 0
78 1341 -80 0
-78 -1342 82 0
78 1342 -82 0
-78 -1343 84 0
78 1343 -84 0
-78 -1344 86 0
78 1344 -86 0
-78 -1345 88 0
78 1345 -88 0
-78 -1346 90 0
78 1346 -90 0
-78 -1347 92 0
78 1347 -92 0
-78 -1348 94 0
78 1348 -94 0
-78 -1349 96 0
78 1349 -96 0
-78 -1350 98 0
78 1350 -98 0
-78 -1351 100 0
78 1351 -100 0
-78 -1352 102 0
78 1352 -102 0
-78 -1353 104 0
78 1353 -104 0
-80 -1354 82 0
80 1354 -82 0
-80 -1355 84 0
80 1355 -84 0
-80 -1356 86 0
80 1356 -86 0
-80 -1357 88 0
80 1357 -88 0
-80 -1358 90 0
80 1358 -90 0
-80 -1359 92 0
80 1359 -92 0
-80 -1360 94 0
80 1360 -94 0
-80 -1361 96 0
80 1361 -96 0
-80 -1362 98 0
80 1362 -98 0
-80 -1363 100 0
80 1363 -100 0
-80 -1364 102 0
80 1364 -102 0
-80 -1365 104 0
80 1365 -104 0
-82 -1366 84 0
82 1366 -84 0
-82 -1367 86 0
82 1367 -86 0
-82 -1368 88 0
82 1368 -88 0
-82 -1369 90 0
82 1369 -90 0
-82 -1370 92 0
82 1370 -92 0
-82 -1371 94 0
82 1371 -94 0
-82 -1372 96 0
82 1372 -96 0
-82 -1373 98 0
82 1373 -98 0
-82 -1374 100 0
82 1374 -100 0
-82 -1375 102 0
82 1375 -102 0
-82 -1376 104 0
82 1376 -104 0
-84 -1377 86 0
84 1377 -86 0
-84 -1378 88 0
84 1378 -88 0
-84 -1379 90 0
84 1379 -90 0
-84 -1380 92 0
84 1380 -92 0
-84 -1381 94 0
84 1381 -94 0
-84 -1382 96 0
84 1382 -96 0
-84 -1383 98 0
84 1383 -98 0
-84 -1384 100 0
84 1384 -100 0
-84 -1385 102 0
84 1385 -102 0
-84 -1386 104 0
84 1386 -104 0
-86 -1387 88 0
86 1387 -88 0
-86 -1388 90 0
86 1388 -90 0
-86 -1389 92 0
86 1389 -92 0
-86 -1390 94 0
86 1390 -94 0
-86 -1391 96 0
86 1391 -96 0
-86 -1392 98 0
86 1392 -98 0
-86 -1393 100 0
86 1393 -100 0
-86 -1394 102 0
86 1394 -102 0
-86 -1395 104 0
86 1395 -104 0
-88 -1396 90 0
88 1396 -90 0
-88 -1397 92 0
88 1397 -92 0
-88 -1398 94 0
88 1398 -94 0
-88 -1399 96 0
88 1399 -96 0
-88 -1400 98 0
88 1400 -98 0
-88 -1401 100 0
88 1401 -100 0
-88 -1402 102 0
88 1402 -102 0
-88 -1403 104 0
88 1403 -104 0
-90 -1404 92 0
90 1404 -92 0
-90 -1405 94 0
90 1405 -94 0
-90 -1406 96 0
90 1406 -96 0
-90 -1407 98 0
90 1407 -98 0
-90 -1408 100 0
90 1408 -100 0
-90 -1409 102 0
90 1409 -102 0
-90 -1410 104 0
90 1410 -104 0
-92 -1411 94 0
92 1411 -94 0
-92 -1412 96 0
92 1412 -96 0
-92 -1413 98 0
92 1413 -98 0
-92 -1414 100 0
92 1414 -100 0
-92 -1415 102 0
92 1415 -102 0
-92 -1416 104 0
92 1416 -104 0
-94 -1417 96 0
94 1417 -96 0
-94 -1418 98 0
94 1418 -98 0
-94 -1419 100 0
94 1419 -100 0
-94 -1420 102 0
94 1420 -102 0
-94 -1421 104 0
94 1421 -104 0
-96 -1422 98 0
96 1422 -98 0
-96 -1423 100 0
96 1423 -100 0
-96 -1424 102 0
96 1424 -102 0
-96 -1425 104 0
96 1425 -104 0
-98 -1426 100 0
98 1426 -100 0
-98 -1427 102 0
98 1427 -102 0
-98 -1428 104 0
98 1428 -104 0
-100 -1429 102 0
100 1429 -102 0
-100 -1430 104 0
100 1430 -104 0
-102 -1431 104 0
102 1431 -104 0
-106 -157 107 0
106 157 -107 0
-106 -158 108 0
106 158 -108 0
-106 -159 109 0
106 159 -109 0
-106 -160 110 0
106 160 -110 0
-106 -161 111 0
106 161 -111 0
-106 -162 112 0
106 162 -112 0
-106 -163 113 0
106 163 -113 0
-106 -164 114 0
106 164 -114 0
-106 -165 115 0
106 165 -115 0
-106 -166 116 0
106 166 -116 0
-106 -167 117 0
106 167 -117 0
-106 -168 118 0
106 168 -118 0
-106 -169 119 0
106 169 -119 0
-106 -170 120 0
106 170 -120 0
-106 -171 121 0
106 171 -121 0
-106 -172 122 0
106 172 -122 0
-106 -173 123 0
106 173 -123 0
-106 -174 124 0
106 174 -124 0
-106 -175 125 0
106 175 -125 0
-106 -176 126 0
106 176 -126 0
-106 -177 127 0
106 177 -127 0
-106 -178 128 0
106 178 -128 0
-106 -179 129 0
106 179 -129 0
-106 -180 130 0
106 180 -130 0
-106 -181 131 0
106 181 -131 0
-106 -182 132 0
106 182 -132 0
-106 -183 133 0
106 183 -133 0
-106 -184 134 0
106 184 -134 0
-106 -185 135 0
106 185 -135 0
-106 -186 136 0
106 186 -136 0
-106 -187 137 0
106 187 -137 0
-106 -188 138 0
106 188 -138 0
-106 -189 139 0
106 189 -139 0
-106 -190 140 0
106 190 -140 0
-106 -191 141 0
106 191 -141 0
-106 -192 142 0
106 192 -142 0
-106 -193 143 0
106 193 -143 0
-106 -194 144 0
106 194 -144 0
-106 -195 145 0
106 195 -145 0
-106 -196 146 0
106 196 -146 0
-106 -197 147 0
106 197 -147 0
-106 -198 148 0
106 198 -148 0
-106 -199 149 0
106 199 -149 0
-106 -200 150 0
106 200 -150 0
-106 -201 151 0
106 201 -151 0
-106 -202 152 0
106 202 -152 0
-106 -203 153 0
106 203 -153 0
-106 -204 154 0
106 204 -154 0
-106 -205 155 0
106 205 -155 0
-106 -206 156 0
106 206 -156 0
-107 -207 108 0
107 207 -108 0
-107 -208 109 0
107 208 -109 0
-107 -209 110 0
107 209 -110 0
-107 -210 111 0
107 210 -111 0
-107 -211 112 0
107 211 -112 0
-107 -212 113 0
107 212 -113 0
-107 -213 114 0
107 213 -114 0
-107 -214 115 0
107 214 -115 0
-107 -215 116 0
107 215 -116 0
-107 -216 117 0
107 216 -117 0
-107 -217 118 0
107 217 -118 0
-107 -218 119 0
107 218 -119 0
-107 -219 120 0
107 219 -120 0
-107 -220 121 0
107 220 -121 0
-107 -221 122 0
107 221 -122 0
-107 -222 123 0
107 222 -123 0
-107 -223 124 0
107 223 -124 0
-107 -224 125 0
107 224 -125 0
-107 -225 126 0
107 225 -126 0
-107 -226 127 0
107 226 -127 0
-107 -227 128 0
107 227 -128 0
-107 -228 129 0
107 228 -129 0
-107 -229 130 0
107 229 -130 0
-107 -230 131 0
107 230 -131 0
-107 -231 132 0
107 231 -132 0
-107 -232 133 0
107 232 -133 0
-107 -233 134 0
107 233 -134 0
-107 -234 135 0
107 234 -135 0
-107 -235 136 0
107 235 -136 0
-107 -236 137 0
107 236 -137 0
-107 -237 138 0
107 237 -138 0
-107 -238 139 0
107 238 -139 0
-107 -239 140 0
107 239 -140 0
-107 -240 141 0
107 240 -141 0
-107 -241 142 0
107 241 -142 0
-107 -242 143 0
107 242 -143 0
-107 -243 144 0
107 243 -144 0
-107 -244 145 0
107 244 -145 0
-107 -245 146 0
107 245 -146 0
-107 -246 147 0
107 246 -147 0
-107 -247 148 0
107 247 -148 0
-107 -248 149 0
107 248 -149 0
-107 -249 150 0
107 249 -150 0
-107 -250 151 0
107 250 -151 0
-107 -251 152 0
107 251 -152 0
-107 -252 153 0
107 252 -153 0
-107 -253 154 0
107 253 -154 0
-107 -254 155 0
107 254 -155 0
-107 -255 156 0
107 255 -156 0
-108 -256 109 0
108 256 -109 0
-108 -257 110 0
108 257 -110 0
-108 -258 111 0
108 258 -111 0
-108 -259 112 0
108 259 -112 0
-108 -260 113 0
108 260 -113 0
-108 -261 114 0
108 261 -114 0
-108 -262 115 0
108 262 -115 0
-108 -263 116 0
108 263 -116 0
-108 -264 117 0
108 264 -117 0
-108 -265 118 0
108 265 -118 0
-108 -266 119 0
108 266 -119 0
-108 -267 120 0
108 267 -120 0
-108 -268 121 0
108 268 -121 0
-108 -269 122 0
108 269 -122 0
-108 -270 123 0
108 270 -123 0
-108 -271 124 0
108 271 -124 0
-108 -272 125 0
108 272 -125 0
-108 -273 126 0
108 273 -126 0
-108 -274 127 0
108 274 -127 0
-108 -275 128 0
108 275 -128 0
-108 -276 129 0
108 276 -129 0
-108 -277 130 0
108 277 -130 0
-108 -278 131 0
108 278 -131 0
-108 -279 132 0
108 279 -132 0
-108 -280 133 0
108 280 -133 0
-108 -281 134 0
108 281 -134 0
-108 -282 135 0
108 282 -135 0
-108 -283 136 0
108 283 -136 0
-108 -284 137 0
108 284 -137 0
-108 -285 138 0
108 285 -138 0
-108 -286 139 0
108 286 -139 0
-108 -287 140 0
108 287 -140 0
-108 -288 141 0
108 288 -141 0
-108 -289 142 0
108 289 -142 0
-108 -290 143 0
108 290 -143 0
-108 -291 144 0
108 291 -144 0
-108 -292 145 0
108 292 -145 0
-108 -293 146 0
108 293 -146 0
-108 -294 147 0
108 294 -147 0
-108 -295 148 0
108 295 -148 0
-108 -296 149 0
108 296 -149 0
-108 -297 150 0
108 297 -150 0
-108 -298 151 0
108 298 -151 0
-108 -299 152 0
108 299 -152 0
-108 -300 153 0
108 300 -153 0
-108 -301 154 0
108 301 -154 0
-108 -302 155 0
108 302 -155 0
-108 -303 156 0
108 303 -156 0
-109 -304 110 0
109 304 -110 0
-109 -305 111 0
109 305 -111 0
-109 -306 112 0
109 306 -112 0
-109 -307 113 0
109 307 -113 0
-109 -308 114 0
109 308 -114 0
-109 -309 115 0
109 309 -115 0
-109 -310 116 0
109 310 -116 0
-109 -311 117 0
109 311 -117 0
-109 -312 118 0
109 312 -118 0
-109 -313 119 0
109 313 -119 0
-109 -314 120 0
109 314 -120 0
-109 -315 121 0
109 315 -121 0
-109 -316 122 0
109 316 -122 0
-109 -317 123 0
109 317 -123 0
-109 -318 124 0
109 318 -124 0
-109 -319 125 0
109 319 -125 0
-109 -320 126 0
109 320 -126 0
-109 -321 127 0
109 321 -127 0
-109 -322 128 0
109 322 -128 0
-109 -323 129 0
109 323 -129 0
-109 -324 130 0
109 324 -130 0
-109 -325 131 0
109 325 -131 0
-109 -326 132 0
109 326 -132 0
-109 -327 133 0
109 327 -133 0
-109 -328 134 0
109 328 -134 0
-109 -329 135 0
109 329 -135 0
-109 -330 136 0
109 330 -136 0
-109 -331 137 0
109 331 -137 0
-109 -332 138 0
109 332 -138 0
-109 -333 139 0
109 333 -139 0
-109 -334 140 0
109 334 -140 0
-109 -335 141 0
109 335 -141 0
-109 -336 142 0
109 336 -142 0
-109 -337 143 0
109 337 -143 0
-109 -338 144 0
109 338 -144 0
-109 -339 145 0
109 339 -145 0
-109 -340 146 0
109 340 -146 0
-109 -341 147 0
109 341 -147 0
-109 -342 148 0
109 342 -148 0
-109 -343 149 0
109 343 -149 0
-109 -344 150 0
109 344 -150 0
-109 -345 151 0
109 345 -151 0
-109 -346 152 0
109 346 -152 0
-109 -347 153 0
109 347 -153 0
-109 -348 154 0
109 348 -154 0
-109 -349 155 0
109 349 -155 0
-109 -350 156 0
109 350 -156 0
-110 -351 111 0
110 351 -111 0
-110 -352 112 0
110 352 -112 0
-110 -353 113 0
110 353 -113 0
-110 -354 114 0
110 354 -114 0
-110 -355 115 0
110 355 -115 0
-110 -356 116 0
110 356 -116 0
-110 -357 117 0
110 357 -117 0
-110 -358 118 0
110 358 -118 0
-110 -359 119 0
110 359 -119 0
-110 -360 120 0
110 360 -120 0
-110 -361 121 0
110 361 -121 0
-110 -362 122 0
110 362 -122 0
-110 -363 123 0
110 363 -123 0
-110 -364 124 0
110 364 -124 0
-110 -365 125 0
110 365 -125 0
-110 -366 126 0
110 366 -126 0
-110 -367 127 0
110 367 -127 0
-110 -368 128 0
110 368 -128 0
-110 -369 129 0
110 369 -129 0
-110 -370 130 0
110 370 -130 0
-110 -371 131 0
110 371 -131 0
-110 -372 132 0
110 372 -132 0
-110 -373 133 0
110 373 -133 0
-110 -374 134 0
110 374 -134 0
-110 -375 135 0
110 375 -135 0
-110 -376 136 0
110 376 -136 0
-110 -377 137 0
110 377 -137 0
-110 -378 138 0
110 378 -138 0
-110 -379 139 0
110 379 -139 0
-110 -380 140 0
110 380 -140 0
-110 -381 141 0
110 381 -141 0
-110 -382 142 0
110 382 -142 0
-110 -383 143 0
110 383 -143 0
-110 -384 144 0
110 384 -144 0
-110 -385 145 0
110 385 -145 0
-110 -386 146 0
110 386 -146 0
-110 -387 147 0
110 387 -147 0
-110 -388 148 0
110 388 -148 0
-110 -389 149 0
110 389 -149 0
-110 -390 150 0
110 390 -150 0
-110 -391 151 0
110 391 -151 0
-110 -392 152 0
110 392 -152 0
-110 -393 153 0
110 393 -153 0
-110 -394 154 0
110 394 -154 0
-110 -395 155 0
110 395 -155 0
-110 -396 156 0
110 396 -156 0
-111 -397 112 0
111 397 -112 0
-111 -398 113 0
111 398 -113 0
-111 -399 114 0
111 399 -114 0
-111 -400 115 0
111 400 -115 0
-111 -401 116 0
111 401 -116 0
-111 -402 117 0
111 402 -117 0
-111 -403 118 0
111 403 -118 0
-111 -404 119 0
111 404 -119 0
-111 -405 120 0
111 405 -120 0
-111 -406 121 0
111 406 -121 0
-111 -407 122 0
111 407 -122 0
-111 -408 123 0
111 408 -123 0
-111 -409 124 0
111 409 -124 0
-111 -410 125 0
111 410 -125 0
-111 -411 126 0
111 411 -126 0
-111 -412 127 0
111 412 -127 0
-111 -413 128 0
111 413 -128 0
-111 -414 129 0
111 414 -129 0
-111 -415 130 0
111 415 -130 0
-111 -416 131 0
111 416 -131 0
-111 -417 132 0
111 417 -132 0
-111 -418 133 0
111 418 -133 0
-111 -419 134 0
111 419 -134 0
-111 -420 135 0
111 420 -135 0
-111 -421 136 0
111 421 -136 0
-111 -422 137 0
111 422 -137 0
-111 -423 138 0
111 423 -138 0
-111 -424 139 0
111 424 -139 0
-111 -425 140 0
111 425 -140 0
-111 -426 141 0
111 426 -141 0
-111 -427 142 0
111 427 -142 0
-111 -428 143 0
111 428 -143 0
-111 -429 144 0
111 429 -144 0
-111 -430 145 0
111 430 -145 0
-111 -431 146 0
111 431 -146 0
-111 -432 147 0
111 432 -147 0
-111 -433 148 0
111 433 -148 0
-111 -434 149 0
111 434 -149 0
-111 -435 150 0
111 435 -150 0
-111 -436 151 0
111 436 -151 0
-111 -437 152 0
111 437 -152 0
-111 -438 153 0
111 438 -153 0
-111 -439 154 0
111 439 -154 0
-111 -440 155 0
111 440 -155 0
-111 -441 156 0
111 441 -156 0
-112 -442 113 0
112 442 -113 0
-112 -443 114 0
112 443 -114 0
-112 -444 115 0
112 444 -115 0
-112 -445 116 0
112 445 -116 0
-112 -446 117 0
112 446 -117 0
-112 -447 118 0
112 447 -118 0
-112 -448 119 0
112 448 -119 0
-112 -449 120 0
112 449 -120 0
-112 -450 121 0
112 450 -121 0
-112 -451 122 0
112 451 -122 0
-112 -452 123 0
112 452 -123 0
-112 -453 124 0
112 453 -124 0
-112 -454 125 0
112 454 -125 0
-112 -455 126 0
112 455 -126 0
-112 -456 127 0
112 456 -127 0
-112 -457 128 0
112 457 -128 0
-112 -458 129 0
112 458 -129 0
-112 -459 130 0
112 459 -130 0
-112 -460 131 0
112 460 -131 0
-112 -461 132 0
112 461 -132 0
-112 -462 133 0
112 462 -133 0
-112 -463 134 0
112 463 -134 0
-112 -464 135 0
112 464 -135 0
-112 -465 136 0
112 465 -136 0
-112 -466 137 0
112 466 -137 0
-112 -467 138 0
112 467 -138 0
-112 -468 139 0
112 468 -139 0
-112 -469 140 0
112 469 -140 0
-112 -470 141 0
112 470 -141 0
-112 -471 142 0
112 471 -142 0
-112 -472 143 0
112 472 -143 0
-112 -473 144 0
112 473 -144 0
-112 -474 145 0
112 474 -145 0
-112 -475 146 0
112 475 -146 0
-112 -476 147 0
112 476 -147 0
-112 -477 148 0
112 477 -148 0
-112 -478 149 0
112 478 -149 0
-112 -479 150 0
112 479 -150 0
-112 -480 151 0
112 480 -151 0
-112 -481 152 0
112 481 -152 0
-112 -482 153 0
112 482 -153 0
-112 -483 154 0
112 483 -154 0
-112 -484 155 0
112 484 -155 0
-112 -485 156 0
112 485 -156 0
-113 -486 114 0
113 486 -114 0
-113 -487 115 0
113 487 -115 0
-113 -488 116 0
113 488 -116 0
-113 -489 117 0
113 489 -117 0
-113 -490 118 0
113 490 -118 0
-113 -491 119 0
113 491 -119 0
-113 -492 120 0
113 492 -120 0
-113 -493 121 0
113 493 -121 0
-113 -494 122 0
113 494 -122 0
-113 -495 123 0
113 495 -123 0
-113 -496 124 0
113 496 -124 0
-113 -497 125 0
113 497 -125 0
-113 -498 126 0
113 498 -126 0
-113 -499 127 0
113 499 -127 0
-113 -500 128 0
113 500 -128 0
-113 -501 129 0
113 501 -129 0
-113 -502 130 0
113 502 -130 0
-113 -503 131 0
113 503 -131 0
-113 -504 132 0
113 504 -132 0
-113 -505 133 0
113 505 -133 0
-113 -506 134 0
113 506 -134 0
-113 -507 135 0
113 507 -135 0
-113 -508 136 0
113 508 -136 0
-113 -509 137 0
113 509 -137 0
-113 -510 138 0
113 510 -138 0
-113 -511 139 0
113 511 -139 0
-113 -512 140 0
113 512 -140 0
-113 -513 141 0
113 513 -141 0
-113 -514 142 0
113 514 -142 0
-113 -515 143 0
113 515 -143 0
-113 -516 144 0
113 516 -144 0
-113 -517 145 0
113 517 -145 0
-113 -518 146 0
113 518 -146 0
-113 -519 147 0
113 519 -147 0
-113 -520 148 0
113 520 -148 0
-113 -521 149 0
113 521 -149 0
-113 -522 150 0
113 522 -150 0
-113 -523 151 0
113 523 -151 0
-113 -524 152 0
113 524 -152 0
-113 -525 153 0
113 525 -153 0
-113 -526 154 0
113 526 -154 0
-113 -527 155 0
113 527 -155 0
-113 -528 156 0
113 528 -156 0
-114 -529 115 0
114 529 -115 0
-114 -530 116 0
114 530 -116 0
-114 -531 117 0
114 531 -117 0
-114 -532 118 0
114 532 -118 0
-114 -533 119 0
114 533 -119 0
-114 -534 120 0
114 534 -120 0
-114 -535 121 0
114 535 -121 0
-114 -536 122 0
114 536 -122 0
-114 -537 123 0
114 537 -123 0
-114 -538 124 0
114 538 -124 0
-114 -539 125 0
114 539 -125 0
-114 -540 126 0
114 540 -126 0
-114 -541 127 0
114 541 -127 0
-114 -542 128 0
114 542 -128 0
-114 -543 129 0
114 543 -129 0
-114 -544 130 0
114 544 -130 0
-114 -545 131 0
114 545 -131 0
-114 -546 132 0
114 546 -132 0
-114 -547 133 0
114 547 -133 0
-114 -548 134 0
114 548 -134 0
-114 -549 135 0
114 549 -135 0
-114 -550 136 0
114 550 -136 0
-114 -551 137 0
114 551 -137 0
-114 -552 138 0
114 552 -138 0
-114 -553 139 0
114 553 -139 0
-114 -554 140 0
114 554 -140 0
-114 -555 141 0
114 555 -141 0
-114 -556 142 0
114 556 -142 0
-114 -557 143 0
114 557 -143 0
-114 -558 144 0
114 558 -144 0
-114 -559 145 0
114 559 -145 0
-114 -560 146 0
114 560 -146 0
-114 -561 147 0
114 561 -147 0
-114 -562 148 0
114 562 -148 0
-114 -563 149 0
114 563 -149 0
-114 -564 150 0
114 564 -150 0
-114 -565 151 0
114 565 -151 0
-114 -566 152 0
114 566 -152 0
-114 -567 153 0
114 567 -153 0
-114 -568 154 0
114 568 -154 0
-114 -569 155 0
114 569 -155 0
-114 -570 156 0
114 570 -156 0
-115 -571 116 0
115 571 -116 0
-115 -572 117 0
115 572 -117 0
-115 -573 118 0
115 573 -118 0
-115 -574 119 0
115 574 -119 0
-115 -575 120 0
115 575 -120 0
-115 -576 121 0
115 576 -121 0
-115 -577 122 0
115 577 -122 0
-115 -578 123 0
115 578 -123 0
-115 -579 124 0
115 579 -124 0
-115 -580 125 0
115 580 -125 0
-115 -581 126 0
115 581 -126 0
-115 -582 127 0
115 582 -127 0
-115 -583 128 0
115 583 -128 0
-115 -584 129 0
115 584 -129 0
-115 -585 130 0
115 585 -130 0
-115 -586 131 0
115 586 -131 0
-115 -587 132 0
115 587 -132 0
-115 -588 133 0
115 588 -133 0
-115 -589 134 0
115 589 -134 0
-115 -590 135 0
115 590 -135 0
-115 -591 136 0
115 591 -136 0
-115 -592 137 0
115 592 -137 0
-115 -593 138 0
115 593 -138 0
-115 -594 139 0
115 594 -139 0
-115 -595 140 0
115 595 -140 0
-115 -596 141 0
115 596 -141 0
-115 -597 142 0
115 597 -142 0
-115 -598 143 0
115 598 -143 0
-115 -599 144 0
115 599 -144 0
-115 -600 145 0
115 600 -145 0
-115 -601 146 0
115 601 -146 0
-115 -602 147 0
115 602 -147 0
-115 -603 148 0
115 603 -148 0
-115 -604 149 0
115 604 -149 0
-115 -605 150 0
115 605 -150 0
-115 -606 151 0
115 606 -151 0
-115 -607 152 0
115 607 -152 0
-115 -608 153 0
115 608 -153 0
-115 -609 154 0
115 609 -154 0
-115 -610 155 0
115 610 -155 0
-115 -611 156 0
115 611 -156 0
-116 -612 117 0
116 612 -117 0
-116 -613 118 0
116 613 -118 0
-116 -614 119 0
116 614 -119 0
-116 -615 120 0
116 615 -120 0
-116 -616 121 0
116 616 -121 0
-116 -617 122 0
116 617 -122 0
-116 -618 123 0
116 618 -123 0
-116 -619 124 0
116 619 -124 0
-116 -620 125 0
116 620 -125 0
-116 -621 126 0
116 621 -126 0
-116 -622 127 0
116 622 -127 0
-116 -623 128 0
116 623 -128 0
-116 -624 129 0
116 624 -129 0
-116 -625 130 0
116 625 -130 0
-116 -626 131 0
116 626 -131 0
-116 -627 132 0
116 627 -132 0
-116 -628 133 0
116 628 -133 0
-116 -629 134 0
116 629 -134 0
-116 -630 135 0
116 630 -135 0
-116 -631 136 0
116 631 -136 0
-116 -632 137 0
116 632 -137 0
-116 -633 138 0
116 633 -138 0
-116 -634 139 0
116 634 -139 0
-116 -635 140 0
116 635 -140 0
-116 -636 141 0
116 636 -141 0
-116 -637 142 0
116 637 -142 0
-116 -638 143 0
116 638 -143 0
-116 -639 144 0
116 639 -144 0
-116 -640 145 0
116 640 -145 0
-116 -641 146 0
116 641 -146 0
-116 -642 147 0
116 642 -147 0
-116 -643 148 0
116 643 -148 0
-116 -644 149 0
116 644 -149 0
-116 -645 150 0
116 645 -150 0
-116 -646 151 0
116 646 -151 0
-116 -647 152 0
116 647 -152 0
-116 -648 153 0
116 648 -153 0
-116 -649 154 0
116 649 -154 0
-116 -650 155 0
116 650 -155 0
-116 -651 156 0
116 651 -156 0
-117 -652 118 0
117 652 -118 0
-117 -653 119 0
117 653 -119 0
-117 -654 120 0
117 654 -120 0
-117 -655 121 0
117 655 -121 0
-117 -656 122 0
117 656 -122 0
-117 -657 123 0
117 657 -123 0
-117 -658 124 0
117 658 -124 0
-117 -659 125 0
117 659 -125 0
-117 -660 126 0
117 660 -126 0
-117 -661 127 0
117 661 -127 0
-117 -662 128 0
117 662 -128 0
-117 -663 129 0
117 663 -129 0
-117 -664 130 0
117 664 -130 0
-117 -665 131 0
117 665 -131 0
-117 -666 132 0
117 666 -132 0
-117 -667 133 0
117 667 -133 0
-117 -668 134 0
117 668 -134 0
-117 -669 135 0
117 669 -135 0
-117 -670 136 0
117 670 -136 0
-117 -671 137 0
117 671 -137 0
-117 -672 138 0
117 672 -138 0
-117 -673 139 0
117 673 -139 0
-117 -674 140 0
117 674 -140 0
-117 -675 141 0
117 675 -141 0
-117 -676 142 0
117 676 -142 0
-117 -677 143 0
117 677 -143 0
-117 -678 144 0
117 678 -144 0
-117 -679 145 0
117 679 -145 0
-117 -680 146 0
117 680 -146 0
-117 -681 147 0
117 681 -147 0
-117 -682 148 0
117 682 -148 0
-117 -683 149 0
117 683 -149 0
-117 -684 150 0
117 684 -150 0
-117 -685 151 0
117 685 -151 0
-117 -686 152 0
117 686 -152 0
-117 -687 153 0
117 687 -153 0
-117 -688 154 0
117 688 -154 0
-117 -689 155 0
117 689 -155 0
-117 -690 156 0
117 690 -156 0
-118 -691 119 0
118 691 -119 0
-118 -692 120 0
118 692 -120 0
-118 -693 121 0
118 693 -121 0
-118 -694 122 0
118 694 -122 0
-118 -695 123 0
118 695 -123 0
-118 -696 124 0
118 696 -124 0
-118 -697 125 0
118 697 -125 0
-118 -698 126 0
118 698 -126 0
-118 -699 127 0
118 699 -127 0
-118 -700 128 0
118 700 -128 0
-118 -701 129 0
118 701 -129 0
-118 -702 130 0
118 702 -130 0
-118 -703 131 0
118 703 -131 0
-118 -704 132 0
118 704 -132 0
-118 -705 133 0
118 705 -133 0
-118 -706 134 0
118 706 -134 0
-118 -707 135 0
118 707 -135 0
-118 -708 136 0
118 708 -136 0
-118 -709 137 0
118 709 -137 0
-118 -710 138 0
118 710 -138 0
-118 -711 139 0
118 711 -139 0
-118 -712 140 0
118 712 -140 0
-118 -713 141 0
118 713 -141 0
-118 -714 142 0
118 714 -142 0
-118 -715 143 0
118 715 -143 0
-118 -716 144 0
118 716 -144 0
-118 -717 145 0
118 717 -145 0
-118 -718 146 0
118 718 -146 0
-118 -719 147 0
118 719 -147 0
-118 -720 148 0
118 720 -148 0
-118 -721 149 0
118 721 -149 0
-118 -722 150 0
118 722 -150 0
-118 -723 151 0
118 723 -151 0
-118 -724 152 0
118 724 -152 0
-118 -725 153 0
118 725 -153 0
-118 -726 154 0
118 726 -154 0
-118 -727 155 0
118 727 -155 0
-118 -728 156 0
118 728 -156 0
-119 -729 120 0
119 729 -120 0
-119 -730 121 0
119 730 -121 0
-119 -731 122 0
119 731 -122 0
-119 -732 123 0
119 732 -123 0
-119 -733 124 0
119 733 -124 0
-119 -734 125 0
119 734 -125 0
-119 -735 126 0
119 735 -126 0
-119 -736 127 0
119 736 -127 0
-119 -737 128 0
119 737 -128 0
-119 -738 129 0
119 738 -129 0
-119 -739 130 0
119 739 -130 0
-119 -740 131 0
119 740 -131 0
-119 -741 132 0
119 741 -132 0
-119 -742 133 0
119 742 -133 0
-119 -743 134 0
119 743 -134 0
-119 -744 135 0
119 744 -135 0
-119 -745 136 0
119 745 -136 0
-119 -746 137 0
119 746 -137 0
-119 -747 138 0
119 747 -138 0
-119 -748 139 0
119 748 -139 0
-119 -749 140 0
119 749 -140 0
-119 -750 141 0
119 750 -141 0
-119 -751 142 0
119 751 -142 0
-119 -752 143 0
119 752 -143 0
-119 -753 144 0
119 753 -144 0
-119 -754 145 0
119 754 -145 0
-119 -755 146 0
119 755 -146 0
-119 -756 147 0
119 756 -147 0
-119 -757 148 0
119 757 -148 0
-119 -758 149 0
119 758 -149 0
-119 -759 150 0
119 759 -150 0
-119 -760 151 0
119 760 -151 0
-119 -761 152 0
119 761 -152 0
-119 -762 153 0
119 762 -153 0
-119 -763 154 0
119 763 -154 0
-119 -764 155 0
119 764 -155 0
-119 -765 156 0
119 765 -156 0
-120 -766 121 0
120 766 -121 0
-120 -767 122 0
120 767 -122 0
-120 -768 123 0
120 768 -123 0
-120 -769 124 0
120 769 -124 0
-120 -770 125 0
120 770 -125 0
-120 -771 126 0
120 771 -126 0
-120 -772 127 0
120 772 -127 0
-120 -773 128 0
120 773 -128 0
-120 -774 129 0
120 774 -129 0
-120 -775 130 0
120 775 -130 0
-120 -776 131 0
120 776 -131 0
-120 -777 132 0
120 777 -132 0
-120 -778 133 0
120 778 -133 0
-120 -779 134 0
120 779 -134 0
-120 -780 135 0
120 780 -135 0
-120 -781 136 0
120 781 -136 0
-120 -782 137 0
120 782 -137 0
-120 -783 138 0
120 783 -138 0
-120 -784 139 0
120 784 -139 0
-120 -785 140 0
120 785 -140 0
-120 -786 141 0
120 786 -141 0
-120 -787 142 0
120 787 -142 0
-120 -788 143 0
120 788 -143 0
-120 -789 144 0
120 789 -144 0
-120 -790 145 0
120 790 -145 0
-120 -791 146 0
120 791 -146 0
-120 -792 147 0
120 792 -147 0
-120 -793 148 0
120 793 -148 0
-120 -794 149 0
120 794 -149 0
-120 -795 150 0
120 795 -150 0
-120 -796 151 0
120 796 -151 0
-120 -797 152 0
120 797 -152 0
-120 -798 153 0
120 798 -153 0
-120 -799 154 0
120 799 -154 0
-120 -800 155 0
120 800 -155 0
-120 -801 156 0
120 801 -156 0
-121 -802 122 0
121 802 -122 0
-121 -803 123 0
121 803 -123 0
-121 -804 124 0
121 804 -124 0
-121 -805 125 0
121 805 -125 0
-121 -806 126 0
121 806 -126 0
-121 -807 127 0
121 807 -127 0
-121 -808 128 0
121 808 -128 0
-121 -809 129 0
121 809 -129 0
-121 -810 130 0
121 810 -130 0
-121 -811 131 0
121 811 -131 0
-121 -812 132 0
121 812 -132 0
-121 -813 133 0
121 813 -133 0
-121 -814 134 0
121 814 -134 0
-121 -815 135 0
121 815 -135 0
-121 -816 136 0
121 816 -136 0
-121 -817 137 0
121 817 -137 0
-121 -818 138 0
121 818 -138 0
-121 -819 139 0
121 819 -139 0
-121 -820 140 0
121 820 -140 0
-121 -821 141 0
121 821 -141 0
-121 -822 142 0
121 822 -142 0
-121 -823 143 0
121 823 -143 0
-121 -824 144 0
121 824 -144 0
-121 -825 145 0
121 825 -145 0
-121 -826 146 0
121 826 -146 0
-121 -827 147 0
121 827 -147 0
-121 -828 148 0
121 828 -148 0
-121 -829 149 0
121 829 -149 0
-121 -830 150 0
121 830 -150 0
-121 -831 151 0
121 831 -151 0
-121 -832 152 0
121 832 -152 0
-121 -833 153 0
121 833 -153 0
-121 -834 154 0
121 834 -154 0
-121 -835 155 0
121 835 -155 0
-121 -836 156 0
121 836 -156 0
-122 -837 123 0
122 837 -123 0
-122 -838 124 0
122 838 -124 0
-122 -839 125 0
122 839 -125 0
-122 -840 126 0
122 840 -126 0
-122 -841 127 0
122 841 -127 0
-122 -842 128 0
122 842 -128 0
-122 -843 129 0
122 843 -129 0
-122 -844 130 0
122 844 -130 0
-122 -845 131 0
122 845 -131 0
-122 -846 132 0
122 846 -132 0
-122 -847 133 0
122 847 -133 0
-122 -848 134 0
122 848 -134 0
-122 -849 135 0
122 849 -135 0
-122 -850 136 0
122 850 -136 0
-122 -851 137 0
122 851 -137 0
-122 -852 138 0
122 852 -138 0
-122 -853 139 0
122 853 -139 0
-122 -854 140 0
122 854 -140 0
-122 -855 141 0
122 855 -141 0
-122 -856 142 0
122 856 -142 0
-122 -857 143 0
122 857 -143 0
-122 -858 144 0
122 858 -144 0
-122 -859 145 0
122 859 -145 0
-122 -860 146 0
122 860 -146 0
-122 -861 147 0
122 861 -147 0
-122 -862 148 0
122 862 -148 0
-122 -863 149 0
122 863 -149 0
-122 -864 150 0
122 864 -150 0
-122 -865 151 0
122 865 -151 0
-122 -866 152 0
122 866 -152 0
-122 -867 153 0
122 867 -153 0
-122 -868 154 0
122 868 -154 0
-122 -869 155 0
122 869 -155 0
-122 -870 156 0
122 870 -156 0
-123 -871 124 0
123 871 -124 0
-123 -872 125 0
123 872 -125 0
-123 -873 126 0
123 873 -126 0
-123 -874 127 0
123 874 -127 0
-123 -875 128 0
123 875 -128 0
-123 -876 129 0
123 876 -129 0
-123 -877 130 0
123 877 -130 0
-123 -878 131 0
123 878 -131 0
-123 -879 132 0
123 879 -132 0
-123 -880 133 0
123 880 -133 0
-123 -881 134 0
123 881 -134 0
-123 -882 135 0
123 882 -135 0
-123 -883 136 0
123 883 -136 0
-123 -884 137 0
123 884 -137 0
-123 -885 138 0
123 885 -138 0
-123 -886 139 0
123 886 -139 0
-123 -887 140 0
123 887 -140 0
-123 -888 141 0
123 888 -141 0
-123 -889 142 0
123 889 -142 0
-123 -890 143 0
123 890 -143 0
-123 -891 144 0
123 891 -144 0
-123 -892 145 0
123 892 -145 0
-123 -893 146 0
123 893 -146 0
-123 -894 147 0
123 894 -147 0
-123 -895 148 0
123 895 -148 0
-123 -896 149 0
123 896 -149 0
-123 -897 150 0
123 897 -150 0
-123 -898 151 0
123 898 -151 0
-123 -899 152 0
123 899 -152 0
-123 -900 153 0
123 900 -153 0
-123 -901 154 0
123 901 -154 0
-123 -902 155 0
123 902 -155 0
-123 -903 156 0
123 903 -156 0
-124 -904 125 0
124 904 -125 0
-124 -905 126 0
124 905 -126 0
-124 -906 127 0
124 906 -127 0
-124 -907 128 0
124 907 -128 0
-124 -908 129 0
124 908 -129 0
-124 -909 130 0
124 909 -130 0
-124 -910 131 0
124 910 -131 0
-124 -911 132 0
124 911 -132 0
-124 -912 133 0
124 912 -133 0
-124 -913 134 0
124 913 -134 0
-124 -914 135 0
124 914 -135 0
-124 -915 136 0
124 915 -136 0
-124 -916 137 0
124 916 -137 0
-124 -917 138 0
124 917 -138 0
-124 -918 139 0
124 918 -139 0
-124 -919 140 0
124 919 -140 0
-124 -920 141 0
124 920 -141 0
-124 -921 142 0
124 921 -142 0
-124 -922 143 0
124 922 -143 0
-124 -923 144 0
124 923 -144 0
-124 -924 145 0
124 924 -145 0
-124 -925 146 0
124 925 -146 0
-124 -926 147 0
124 926 -147 0
-124 -927 148 0
124 927 -148 0
-124 -928 149 0
124 928 -149 0
-124 -929 150 0
124 929 -150 0
-124 -930 151 0
124 930 -151 0
-124 -931 152 0
124 931 -152 0
-124 -932 153 0
124 932 -153 0
-124 -933 154 0
124 933 -154 0
-124 -934 155 0
124 934 -155 0
-124 -935 156 0
124 935 -156 0
-125 -936 126 0
125 936 -126 0
-125 -937 127 0
125 937 -127 0
-125 -938 128 0
125 938 -128 0
-125 -939 129 0
125 939 -129 0
-125 -940 130 0
125 940 -130 0
-125 -941 131 0
125 941 -131 0
-125 -942 132 0
125 942 -132 0
-125 -943 133 0
125 943 -133 0
-125 -944 134 0
125 944 -134 0
-125 -945 135 0
125 945 -135 0
-125 -946 136 0
125 946 -136 0
-125 -947 137 0
125 947 -137 0
-125 -948 138 0
125 948 -138 0
-125 -949 139 0
125 949 -139 0
-125 -950 140 0
125 950 -140 0
-125 -951 141 0
125 951 -141 0
-125 -952 142 0
125 952 -142 0
-125 -953 143 0
125 953 -143 0
-125 -954 144 0
125 954 -144 0
-125 -955 145 0
125 955 -145 0
-125 -956 146 0
125 956 -146 0
-125 -957 147 0
125 957 -147 0
-125 -958 148 0
125 958 -148 0
-125 -959 149 0
125 959 -149 0
-125 -960 150 0
125 960 -150 0
-125 -961 151 0
125 961 -151 0
-125 -962 152 0
125 962 -152 0
-125 -963 153 0
125 963 -153 0
-125 -964 154 0
125 964 -154 0
-125 -965 155 0
125 965 -155 0
-125 -966 156 0
125 966 -156 0
-126 -967 127 0
126 967 -127 0
-126 -968 128 0
126 968 -128 0
-126 -969 129 0
126 969 -129 0
-126 -970 130 0
126 970 -130 0
-126 -971 131 0
126 971 -131 0
-126 -972 132 0
126 972 -132 0
-126 -973 133 0
126 973 -133 0
-126 -974 134 0
126 974 -134 0
-126 -975 135 0
126 975 -135 0
-126 -976 136 0
126 976 -136 0
-126 -977 137 0
126 977 -137 0
-126 -978 138 0
126 978 -138 0
-126 -979 139 0
126 979 -139 0
-126 -980 140 0
126 980 -140 0
-126 -981 141 0
126 981 -141 0
-126 -982 142 0
126 982 -142 0
-126 -983 143 0
126 983 -143 0
-126 -984 144 0
126 984 -144 0
-126 -985 145 0
126 985 -145 0
-126 -986 146 0
126 986 -146 0
-126 -987 147 0
126 987 -147 0
-126 -988 148 0
126 988 -148 0
-126 -989 149 0
126 989 -149 0
-126 -990 150 0
126 990 -150 0
-126 -991 151 0
126 991 -151 0
-126 -992 152 0
126 992 -152 0
-126 -993 153 0
126 993 -153 0
-126 -994 154 0
126 994 -154 0
-126 -995 155 0
126 995 -155 0
-126 -996 156 0
126 996 -156 0
-127 -997 128 0
127 997 -128 0
-127 -998 129 0
127 998 -129 0
-127 -999 130 0
127 999 -130 0
-127 -1000 131 0
127 1000 -131 0
-127 -1001 132 0
127 1001 -132 0
-127 -1002 133 0
127 1002 -133 0
-127 -1003 134 0
127 1003 -134 0
-127 -1004 135 0
127 1004 -135 0
-127 -1005 136 0
127 1005 -136 0
-127 -1006 137 0
127 1006 -137 0
-127 -1007 138 0
127 1007 -138 0
-127 -1008 139 0
127 1008 -139 0
-127 -1009 140 0
127 1009 -140 0
-127 -1010 141 0
127 1010 -141 0
-127 -1011 142 0
127 1011 -142 0
-127 -1012 143 0
127 1012 -143 0
-127 -1013 144 0
127 1013 -144 0
-127 -1014 145 0
127 1014 -145 0
-127 -1015 146 0
127 1015 -146 0
-127 -1016 147 0
127 1016 -147 0
-127 -1017 148 0
127 1017 -148 0
-127 -1018 149 0
127 1018 -149 0
-127 -1019 150 0
127 1019 -150 0
-127 -1020 151 0
127 1020 -151 0
-127 -1021 152 0
127 1021 -152 0
-127 -1022 153 0
127 1022 -153 0
-127 -1023 154 0
127 1023 -154 0
-127 -1024 155 0
127 1024 -155 0
-127 -1025 156 0
127 1025 -156 0
-128 -1026 129 0
128 1026 -129 0
-128 -1027 130 0
128 1027 -130 0
-128 -1028 131 0
128 1028 -131 0
-128 -1029 132 0
128 1029 -132 0
-128 -1030 133 0
128 1030 -133 0
-128 -1031 134 0
128 1031 -134 0
-128 -1032 135 0
128 1032 -135 0
-128 -1033 136 0
128 1033 -136 0
-128 -1034 137 0
128 1034 -137 0
-128 -1035 138 0
128 1035 -138 0
-128 -1036 139 0
128 1036 -139 0
-128 -1037 140 0
128 1037 -140 0
-128 -1038 141 0
128 1038 -141 0
-128 -1039 142 0
128 1039 -142 0
-128 -1040 143 0
128 1040 -143 0
-128 -1041 144 0
128 1041 -144 0
-128 -1042 145 0
128 1042 -145 0
-128 -1043 146 0
128 1043 -146 0
-128 -1044 147 0
128 1044 -147 0
-128 -1045 148 0
128 1045 -148 0
-128 -1046 149 0
128 1046 -149 0
-128 -1047 150 0
128 1047 -150 0
-128 -1048 151 0
128 1048 -151 0
-128 -1049 152 0
128 1049 -152 0
-128 -1050 153 0
128 1050 -153 0
-128 -1051 154 0
128 1051 -154 0
-128 -1052 155 0
128 1052 -155 0
-128 -1053 156 0
128 1053 -156 0
-129 -1054 130 0
129 1054 -130 0
-129 -1055 131 0
129 1055 -131 0
-129 -1056 132 0
129 1056 -132 0
-129 -1057 133 0
129 1057 -133 0
-129 -1058 134 0
129 1058 -134 0
-129 -1059 135 0
129 1059 -135 0
-129 -1060 136 0
129 1060 -136 0
-129 -1061 137 0
129 1061 -137 0
-129 -1062 138 0
129 1062 -138 0
-129 -1063 139 0
129 1063 -139 0
-129 -1064 140 0
129 1064 -140 0
-129 -1065 141 0
129 1065 -141 0
-129 -1066 142 0
129 1066 -142 0
-129 -1067 143 0
129 1067 -143 0
-129 -1068 144 0
129 1068 -144 0
-129 -1069 145 0
129 1069 -145 0
-129 -1070 146 0
129 1070 -146 0
-129 -1071 147 0
129 1071 -147 0
-129 -1072 148 0
129 1072 -148 0
-129 -1073 149 0
129 1073 -149 0
-129 -1074 150 0
129 1074 -150 0
-129 -1075 151 0
129 1075 -151 0
-129 -1076 152 0
129 1076 -152 0
-129 -1077 153 0
129 1077 -153 0
-129 -1078 154 0
129 1078 -154 0
-129 -1079 155 0
129 1079 -155 0
-129 -1080 156 0
129 1080 -156 0
-130 -1081 131 0
130 1081 -131 0
-130 -1082 132 0
130 1082 -132 0
-130 -1083 133 0
130 1083 -133 0
-130 -1084 134 0
130 1084 -134 0
-130 -1085 135 0
130 1085 -135 0
-130 -1086 136 0
130 1086 -136 0
-130 -1087 137 0
130 1087 -137 0
-130 -1088 138 0
130 1088 -138 0
-130 -1089 139 0
130 1089 -139 0
-130 -1090 140 0
130 1090 -140 0
-130 -1091 141 0
130 1091 -141 0
-130 -1092 142 0
130 1092 -142 0
-130 -1093 143 0
130 1093 -143 0
-130 -1094 144 0
130 1094 -144 0
-130 -1095 145 0
130 1095 -145 0
-130 -1096 146 0
130 1096 -146 0
-130 -1097 147 0
130 1097 -147 0
-130 -1098 148 0
130 1098 -148 0
-130 -1099 149 0
130 1099 -149 0
-130 -1100 150 0
130 1100 -150 0
-130 -1101 151 0
130 1101 -151 0
-130 -1102 152 0
130 1102 -152 0
-130 -1103 153 0
130 1103 -153 0
-130 -1104 154 0
130 1104 -154 0
-130 -1105 155 0
130 1105 -155 0
-130 -1106 156 0
130 1106 -156 0
-131 -1107 132 0
131 1107 -132 0
-131 -1108 133 0
131 1108 -133 0
-131 -1109 134 0
131 1109 -134 0
-131 -1110 135 0
131 1110 -135 0
-131 -1111 136 0
131 1111 -136 0
-131 -1112 137 0
131 1112 -137 0
-131 -1113 138 0
131 1113 -138 0
-131 -1114 139 0
131 1114 -139 0
-131 -1115 140 0
131 1115 -140 0
-131 -1116 141 0
131 1116 -141 0
-131 -1117 142 0
131 1117 -142 0
-131 -1118 143 0
131 1118 -143 0
-131 -1119 144 0
131 1119 -144 0
-131 -1120 145 0
131 1120 -145 0
-131 -1121 146 0
131 1121 -146 0
-131 -1122 147 0
131 1122 -147 0
-131 -1123 148 0
131 1123 -148 0
-131 -1124 149 0
131 1124 -149 0
-131 -1125 150 0
131 1125 -150 0
-131 -1126 151 0
131 1126 -151 0
-131 -1127 152 0
131 1127 -152 0
-131 -1128 153 0
131 1128 -153 0
-131 -1129 154 0
131 1129 -154 0
-131 -1130 155 0
131 1130 -155 0
-131 -1131 156 0
131 1131 -156 0
-132 -1132 133 0
132 1132 -133 0
-132 -1133 134 0
132 1133 -134 0
-132 -1134 135 0
132 1134 -135 0
-132 -1135 136 0
132 1135 -136 0
-132 -1136 137 0
132 1136 -137 0
-132 -1137 138 0
132 1137 -138 0
-132 -1138 139 0
132 1138 -139 0
-132 -1139 140 0
132 1139 -140 0
-132 -1140 141 0
132 1140 -141 0
-132 -1141 142 0
132 1141 -142 0
-132 -1142 143 0
132 1142 -143 0
-132 -1143 144 0
132 1143 -144 0
-132 -1144 145 0
132 1144 -145 0
-132 -1145 146 0
132 1145 -146 0
-132 -1146 147 0
132 1146 -147 0
-132 -1147 148 0
132 1147 -148 0
-132 -1148 149 0
132 1148 -149 0
-132 -1149 150 0
132 1149 -150 0
-132 -1150 151 0
132 1150 -151 0
-132 -1151 152 0
132 1151 -152 0
-132 -1152 153 0
132 1152 -153 0
-132 -1153 154 0
132 1153 -154 0
-132 -1154 155 0
132 1154 -155 0
-132 -1155 156 0
132 1155 -156 0
-133 -1156 134 0
133 1156 -134 0
-133 -1157 135 0
133 1157 -135 0
-133 -1158 136 0
133 1158 -136 0
-133 -1159 137 0
133 1159 -137 0
-133 -1160 138 0
133 1160 -138 0
-133 -1161 139 0
133 1161 -139 0
-133 -1162 140 0
133 1162 -140 0
-133 -1163 141 0
133 1163 -141 0
-133 -1164 142 0
133 1164 -142 0
-133 -1165 143 0
133 1165 -143 0
-133 -1166 144 0
133 1166 -144 0
-133 -1167 145 0
133 1167 -145 0
-133 -1168 146 0
133 1168 -146 0
-133 -1169 147 0
133 1169 -147 0
-133 -1170 148 0
133 1170 -148 0
-133 -1171 149 0
133 1171 -149 0
-133 -1172 150 0
133 1172 -150 0
-133 -1173 151 0
133 1173 -151 0
-133 -1174 152 0
133 1174 -152 0
-133 -1175 153 0
133 1175 -153 0
-133 -1176 154 0
133 1176 -154 0
-133 -1177 155 0
133 1177 -155 0
-133 -1178 156 0
133 1178 -156 0
-134 -1179 135 0
134 1179 -135 0
-134 -1180 136 0
134 1180 -136 0
-134 -1181 137 0
134 1181 -137 0
-134 -1182 138 0
134 1182 -138 0
-134 -1183 139 0
134 1183 -139 0
-134 -1184 140 0
134 1184 -140 0
-134 -1185 141 0
134 1185 -141 0
-134 -1186 142 0
134 1186 -142 0
-134 -1187 143 0
134 1187 -143 0
-134 -1188 144 0
134 1188 -144 0
-134 -1189 145 0
134 1189 -145 0
-134 -1190 146 0
134 1190 -146 0
-134 -1191 147 0
134 1191 -147 0
-134 -1192 148 0
134 1192 -148 0
-134 -1193 149 0
134 1193 -149 0
-134 -1194 150 0
134 1194 -150 0
-134 -1195 151 0
134 1195 -151 0
-134 -1196 152 0
134 1196 -152 0
-134 -1197 153 0
134 1197 -153 0
-134 -1198 154 0
134 1198 -154 0
-134 -1199 155 0
134 1199 -155 0
-134 -1200 156 0
134 1200 -156 0
-135 -1201 136 0
135 1201 -136 0
-135 -1202 137 0
135 1202 -137 0
-135 -1203 138 0
135 1203 -138 0
-135 -1204 139 0
135 1204 -139 0
-135 -1205 140 0
135 1205 -140 0
-135 -1206 141 0
135 1206 -141 0
-135 -1207 142 0
135 1207 -142 0
-135 -1208 143 0
135 1208 -143 0
-135 -1209 144 0
135 1209 -144 0
-135 -1210 145 0
135 1210 -145 0
-135 -1211 146 0
135 1211 -146 0
-135 -1212 147 0
135 1212 -147 0
-135 -1213 148 0
135 1213 -148 0
-135 -1214 149 0
135 1214 -149 0
-135 -1215 150 0
135 1215 -150 0
-135 -1216 151 0
135 1216 -151 0
-135 -1217 152 0
135 1217 -152 0
-135 -1218 153 0
135 1218 -153 0
-135 -1219 154 0
135 1219 -154 0
-135 -1220 155 0
135 1220 -155 0
-135 -1221 156 0
135 1221 -156 0
-136 -1222 137 0
136 1222 -137 0
-136 -1223 138 0
136 1223 -138 0
-136 -1224 139 0
136 1224 -139 0
-136 -1225 140 0
136 1225 -140 0
-136 -1226 141 0
136 1226 -141 0
-136 -1227 142 0
136 1227 -142 0
-136 -1228 143 0
136 1228 -143 0
-136 -1229 144 0
136 1229 -144 0
-136 -1230 145 0
136 1230 -145 0
-136 -1231 146 0
136 1231 -146 0
-136 -1232 147 0
136 1232 -147 0
-136 -1233 148 0
136 1233 -148 0
-136 -1234 149 0
136 1234 -149 0
-136 -1235 150 0
136 1235 -150 0
-136 -1236 151 0
136 1236 -151 0
-136 -1237 152 0
136 1237 -152 0
-136 -1238 153 0
136 1238 -153 0
-136 -1239 154 0
136 1239 -154 0
-136 -1240 155 0
136 1240 -155 0
-136 -1241 156 0
136 1241 -156 0
-137 -1242 138 0
137 1242 -138 0
-137 -1243 139 0
137 1243 -139 0
-137 -1244 140 0
137 1244 -140 0
-137 -1245 141 0
137 1245 -141 0
-137 -1246 142 0
137 1246 -142 0
-137 -1247 143 0
137 1247 -143 0
-137 -1248 144 0
137 1248 -144 0
-137 -1249 145 0
137 1249 -145 0
-137 -1250 146 0
137 1250 -146 0
-137 -1251 147 0
137 1251 -147 0
-137 -1252 148 0
137 1252 -148 0
-137 -1253 149 0
137 1253 -149 0
-137 -1254 150 0
137 1254 -150 0
-137 -1255 151 0
137 1255 -151 0
-137 -1256 152 0
137 1256 -152 0
-137 -1257 153 0
137 1257 -153 0
-137 -1258 154 0
137 1258 -154 0
-137 -1259 155 0
137 1259 -155 0
-137 -1260 156 0
137 1260 -156 0
-138 -1261 139 0
138 1261 -139 0
-138 -1262 140 0
138 1262 -140 0
-138 -1263 141 0
138 1263 -141 0
-138 -1264 142 0
138 1264 -142 0
-138 -1265 143 0
138 1265 -143 0
-138 -1266 144 0
138 1266 -144 0
-138 -1267 145 0
138 1267 -145 0
-138 -1268 146 0
138 1268 -146 0
-138 -1269 147 0
138 1269 -147 0
-138 -1270 148 0
138 1270 -148 0
-138 -1271 149 0
138 1271 -149 0
-138 -1272 150 0
138 1272 -150 0
-138 -1273 151 0
138 1273 -151 0
-138 -1274 152 0
138 1274 -152 0
-138 -1275 153 0
138 1275 -153 0
-138 -1276 154 0
138 1276 -154 0
-138 -1277 155 0
138 1277 -155 0
-138 -1278 156 0
138 1278 -156 0
-139 -1279 140 0
139 1279 -140 0
-139 -1280 141 0
139 1280 -141 0
-139 -1281 142 0
139 1281 -142 0
-139 -1282 143 0
139 1282 -143 0
-139 -1283 144 0
139 1283 -144 0
-139 -1284 145 0
139 1284 -145 0
-139 -1285 146 0
139 1285 -146 0
-139 -1286 147 0
139 1286 -147 0
-139 -1287 148 0
139 1287 -148 0
-139 -1288 149 0
139 1288 -149 0
-139 -1289 150 0
139 1289 -150 0
-139 -1290 151 0
139 1290 -151 0
-139 -1291 152 0
139 1291 -152 0
-139 -1292 153 0
139 1292 -153 0
-139 -1293 154 0
139 1293 -154 0
-139 -1294 155 0
139 1294 -155 0
-139 -1295 156 0
139 1295 -156 0
-140 -1296 141 0
140 1296 -141 0
-140 -1297 142 0
140 1297 -142 0
-140 -1298 143 0
140 1298 -143 0
-140 -1299 144 0
140 1299 -144 0
-140 -1300 145 0
140 1300 -145 0
-140 -1301 146 0
140 1301 -146 0
-140 -1302 147 0
140 1302 -147 0
-140 -1303 148 0
140 1303 -148 0
-140 -1304 149 0
140 1304 -149 0
-140 -1305 150 0
140 1305 -150 0
-140 -1306 151 0
140 1306 -151 0
-140 -1307 152 0
140 1307 -152 0
-140 -1308 153 0
140 1308 -153 0
-140 -1309 154 0
140 1309 -154 0
-140 -1310 155 0
140 1310 -155 0
-140 -1311 156 0
140 1311 -156 0
-141 -1312 142 0
141 1312 -142 0
-141 -1313 143 0
141 1313 -143 0
-141 -1314 144 0
141 1314 -144 0
-141 -1315 145 0
141 1315 -145 0
-141 -1316 146 0
141 1316 -146 0
-141 -1317 147 0
141 1317 -147 0
-141 -1318 148 0
141 1318 -148 0
-141 -1319 149 0
141 1319 -149 0
-141 -1320 150 0
141 1320 -150 0
-141 -1321 151 0
141 1321 -151 0
-141 -1322 152 0
141 1322 -152 0
-141 -1323 153 0
141 1323 -153 0
-141 -1324 154 0
141 1324 -154 0
-141 -1325 155 0
141 1325 -155 0
-141 -1326 156 0
141 1326 -156 0
-142 -1327 143 0
142 1327 -143 0
-142 -1328 144 0
142 1328 -144 0
-142 -1329 145 0
142 1329 -145 0
-142 -1330 146 0
142 1330 -146 0
-142 -1331 147 0
142 1331 -147 0
-142 -1332 148 0
142 1332 -148 0
-142 -1333 149 0
142 1333 -149 0
-142 -1334 150 0
142 1334 -150 0
-142 -1335 151 0
142 1335 -151 0
-142 -1336 152 0
142 1336 -152 0
-142 -1337 153 0
142 1337 -153 0
-142 -1338 154 0
142 1338 -154 0
-142 -1339 155 0
142 1339 -155 0
-142 -1340 156 0
142 1340 -156 0
-143 -1341 144 0
143 1341 -144 0
-143 -1342 145 0
143 1342 -145 0
-143 -1343 146 0
143 1343 -146 0
-143 -1344 147 0
143 1344 -147 0
-143 -1345 148 0
143 1345 -148 0
-143 -1346 149 0
143 1346 -149 0
-143 -1347 150 0
143 1347 -150 0
-143 -1348 151 0
143 1348 -151 0
-143 -1349 152 0
143 1349 -152 0
-143 -1350 153 0
143 1350 -153 0
-143 -1351 154 0
143 1351 -154 0
-143 -1352 155 0
143 1352 -155 0
-143 -1353 156 0
143 1353 -156 0
-144 -1354 145 0
144 1354 -145 0
-144 -1355 146 0
144 1355 -146 0
-144 -1356 147 0
144 1356 -147 0
-144 -1357 148 0
144 1357 -148 0
-144 -1358 149 0
144 1358 -149 0
-144 -1359 150 0
144 1359 -150 0
-144 -1360 151 0
144 1360 -151 0
-144 -1361 152 0
144 1361 -152 0
-144 -1362 153 0
144 1362 -153 0
-144 -1363 154 0
144 1363 -154 0
-144 -1364 155 0
144 1364 -155 0
-144 -1365 156 0
144 1365 -156 0
-145 -1366 146 0
145 1366 -146 0
-145 -1367 147 0
145 1367 -147 0
-145 -1368 148 0
145 1368 -148 0
-145 -1369 149 0
145 1369 -149 0
-145 -1370 150 0
145 1370 -150 0
-145 -1371 151 0
145 1371 -151 0
-145 -1372 152 0
145 1372 -152 0
-145 -1373 153 0
145 1373 -153 0
-145 -1374 154 0
145 1374 -154 0
-145 -1375 155 0
145 1375 -155 0
-145 -1376 156 0
145 1376 -156 0
-146 -1377 147 0
146 1377 -147 0
-146 -1378 148 0
146 1378 -148 0
-146 -1379 149 0
146 1379 -149 0
-146 -1380 150 0
146 1380 -150 0
-146 -1381 151 0
146 1381 -151 0
-146 -1382 152 0
146 1382 -152 0
-146 -1383 153 0
146 1383 -153 0
-146 -1384 154 0
146 1384 -154 0
-146 -1385 155 0
146 1385 -155 0
-146 -1386 156 0
146 1386 -156 0
-147 -1387 148 0
147 1387 -148 0
-147 -1388 149 0
147 1388 -149 0
-147 -1389 150 0
147 1389 -150 0
-147 -1390 151 0
147 1390 -151 0
-147 -1391 152 0
147 1391 -152 0
-147 -1392 153 0
147 1392 -153 0
-147 -1393 154 0
147 1393 -154 0
-147 -1394 155 0
147 1394 -155 0
-147 -1395 156 0
147 1395 -156 0
-148 -1396 149 0
148 1396 -149 0
-148 -1397 150 0
148 1397 -150 0
-148 -1398 151 0
148 1398 -151 0
-148 -1399 152 0
148 1399 -152 0
-148 -1400 153 0
148 1400 -153 0
-148 -1401 154 0
148 1401 -154 0
-148 -1402 155 0
148 1402 -155 0
-148 -1403 156 0
148 1403 -156 0
-149 -1404 150 0
149 1404 -150 0
-149 -1405 151 0
149 1405 -151 0
-149 -1406 152 0
149 1406 -152 0
-149 -1407 153 0
149 1407 -153 0
-149 -1408 154 0
149 1408 -154 0
-149 -1409 155 0
149 1409 -155 0
-149 -1410 156 0
149 1410 -156 0
-150 -1411 151 0
150 1411 -151 0
-150 -1412 152 0
150 1412 -152 0
-150 -1413 153 0
150 1413 -153 0
-150 -1414 154 0
150 1414 -154 0
-150 -1415 155 0
150 1415 -155 0
-150 -1416 156 0
150 1416 -156 0
-151 -1417 152 0
151 1417 -152 0
-151 -1418 153 0
151 1418 -153 0
-151 -1419 154 0
151 1419 -154 0
-151 -1420 155 0
151 1420 -155 0
-151 -1421 156 0
151 1421 -156 0
-152 -1422 153 0
152 1422 -153 0
-152 -1423 154 0
152 1423 -154 0
-152 -1424 155 0
152 1424 -155 0
-152 -1425 156 0
152 1425 -156 0
-153 -1426 154 0
153 1426 -154 0
-153 -1427 155 0
153 1427 -155 0
-153 -1428 156 0
153 1428 -156 0
-154 -1429 155 0
154 1429 -155 0
-154 -1430 156 0
154 1430 -156 0
-155 -1431 156 0
155 1431 -156 0
-157 -207 158 0
157 207 -158 0
-157 -208 159 0
157 208 -159 0
-157 -209 160 0
157 209 -160 0
-157 -210 161 0
157 210 -161 0
-157 -211 162 0
157 211 -162 0
-157 -212 163 0
157 212 -163 0
-157 -213 164 0
157 213 -164 0
-157 -214 165 0
157 214 -165 0
-157 -215 166 0
157 215 -166 0
-157 -216 167 0
157 216 -167 0
-157 -217 168 0
157 217 -168 0
-157 -218 169 0
157 218 -169 0
-157 -219 170 0
157 219 -170 0
-157 -220 171 0
157 220 -171 0
-157 -221 172 0
157 221 -172 0
-157 -222 173 0
157 222 -173 0
-157 -223 174 0
157 223 -174 0
-157 -224 175 0
157 224 -175 0
-157 -225 176 0
157 225 -176 0
-157 -226 177 0
157 226 -177 0
-157 -227 178 0
157 227 -178 0
-157 -228 179 0
157 228 -179 0
-157 -229 180 0
157 229 -180 0
-157 -230 181 0
157 230 -181 0
-157 -231 182 0
157 231 -182 0
-157 -232 183 0
157 232 -183 0
-157 -233 184 0
157 233 -184 0
-157 -234 185 0
157 234 -185 0
-157 -235 186 0
157 235 -186 0
-157 -236 187 0
157 236 -187 0
-157 -237 188 0
157 237 -188 0
-157 -238 189 0
157 238 -189 0
-157 -239 190 0
157 239 -190 0
-157 -240 191 0
157 240 -191 0
-157 -241 192 0
157 241 -192 0
-157 -242 193 0
157 242 -193 0
-157 -243 194 0
157 243 -194 0
-157 -244 195 0
157 244 -195 0
-157 -245 196 0
157 245 -196 0
-157 -246 197 0
157 246 -197 0
-157 -247 198 0
157 247 -198 0
-157 -248 199 0
157 248 -199 0
-157 -249 200 0
157 249 -200 0
-157 -250 201 0
157 250 -201 0
-157 -251 202 0
157 251 -202 0
-157 -252 203 0
157 252 -203 0
-157 -253 204 0
157 253 -204 0
-157 -254 205 0
157 254 -205 0
-157 -255 206 0
157 255 -206 0
-158 -256 159 0
158 256 -159 0
-158 -257 160 0
158 257 -160 0
-158 -258 161 0
158 258 -161 0
-158 -259 162 0
158 259 -162 0
-158 -260 163 0
158 260 -163 0
-158 -261 164 0
158 261 -164 0
-158 -262 165 0
158 262 -165 0
-158 -263 166 0
158 263 -166 0
-158 -264 167 0
158 264 -167 0
-158 -265 168 0
158 265 -168 0
-158 -266 169 0
158 266 -169 0
-158 -267 170 0
158 267 -170 0
-158 -268 171 0
158 268 -171 0
-158 -269 172 0
158 269 -172 0
-158 -270 173 0
158 270 -173 0
-158 -271 174 0
158 271 -174 0
-158 -272 175 0
158 272 -175 0
-158 -273 176 0
158 273 -176 0
-158 -274 177 0
158 274 -177 0
-158 -275 178 0
158 275 -178 0
-158 -276 179 0
158 276 -179 0
-158 -277 180 0
158 277 -180 0
-158 -278 181 0
158 278 -181 0
-158 -279 182 0
158 279 -182 0
-158 -280 183 0
158 280 -183 0
-158 -281 184 0
158 281 -184 0
-158 -282 185 0
158 282 -185 0
-158 -283 186 0
158 283 -186 0
-158 -284 187 0
158 284 -187 0
-158 -285 188 0
158 285 -188 0
-158 -286 189 0
158 286 -189 0
-158 -287 190 0
158 287 -190 0
-158 -288 191 0
158 288 -191 0
-158 -289 192 0
158 289 -192 0
-158 -290 193 0
158 290 -193 0
-158 -291 194 0
158 291 -194 0
-158 -292 195 0
158 292 -195 0
-158 -293 196 0
158 293 -196 0
-158 -294 197 0
158 294 -197 0
-158 -295 198 0
158 295 -198 0
-158 -296 199 0
158 296 -199 0
-158 -297 200 0
158 297 -200 0
-158 -298 201 0
158 298 -201 0
-158 -299 202 0
158 299 -202 0
-158 -300 203 0
158 300 -203 0
-158 -301 204 0
158 301 -204 0
-158 -302 205 0
158 302 -205 0
-158 -303 206 0
158 303 -206 0
-159 -304 160 0
159 304 -160 0
-159 -305 161 0
159 305 -161 0
-159 -306 162 0
159 306 -162 0
-159 -307 163 0
159 307 -163 0
-159 -308 164 0
159 308 -164 0
-159 -309 165 0
159 309 -165 0
-159 -310 166 0
159 310 -166 0
-159 -311 167 0
159 311 -167 0
-159 -312 168 0
159 312 -168 0
-159 -313 169 0
159 313 -169 0
-159 -314 170 0
159 314 -170 0
-159 -315 171 0
159 315 -171 0
-159 -316 172 0
159 316 -172 0
-159 -317 173 0
159 317 -173 0
-159 -318 174 0
159 318 -174 0
-159 -319 175 0
159 319 -175 0
-159 -320 176 0
159 320 -176 0
-159 -321 177 0
159 321 -177 0
-159 -322 178 0
159 322 -178 0
-159 -323 179 0
159 323 -179 0
-159 -324 180 0
159 324 -180 0
-159 -325 181 0
159 325 -181 0
-159 -326 182 0
159 326 -182 0
-159 -327 183 0
159 327 -183 0
-159 -328 184 0
159 328 -184 0
-159 -329 185 0
159 329 -185 0
-159 -330 186 0
159 330 -186 0
-159 -331 187 0
159 331 -187 0
-159 -332 188 0
159 332 -188 0
-159 -333 189 0
159 333 -189 0
-159 -334 190 0
159 334 -190 0
-159 -335 191 0
159 335 -191 0
-159 -336 192 0
159 336 -192 0
-159 -337 193 0
159 337 -193 0
-159 -338 194 0
159 338 -194 0
-159 -339 195 0
159 339 -195 0
-159 -340 196 0
159 340 -196 0
-159 -341 197 0
159 341 -197 0
-159 -342 198 0
159 342 -198 0
-159 -343 199 0
159 343 -199 0
-159 -344 200 0
159 344 -200 0
-159 -345 201 0
159 345 -201 0
-159 -346 202 0
159 346 -202 0
-159 -347 203 0
159 347 -203 0
-159 -348 204 0
159 348 -204 0
-159 -349 205 0
159 349 -205 0
-159 -350 206 0
159 350 -206 0
-160 -351 161 0
160 351 -161 0
-160 -352 162 0
160 352 -162 0
-160 -353 163 0
160 353 -163 0
-160 -354 164 0
160 354 -164 0
-160 -355 165 0
160 355 -165 0
-160 -356 166 0
160 356 -166 0
-160 -357 167 0
160 357 -167 0
-160 -358 168 0
160 358 -168 0
-160 -359 169 0
160 359 -169 0
-160 -360 170 0
160 360 -170 0
-160 -361 171 0
160 361 -171 0
-160 -362 172 0
160 362 -172 0
-160 -363 173 0
160 363 -173 0
-160 -364 174 0
160 364 -174 0
-160 -365 175 0
160 365 -175 0
-160 -366 176 0
160 366 -176 0
-160 -367 177 0
160 367 -177 0
-160 -368 178 0
160 368 -178 0
-160 -369 179 0
160 369 -179 0
-160 -370 180 0
160 370 -180 0
-160 -371 181 0
160 371 -181 0
-160 -372 182 0
160 372 -182 0
-160 -373 183 0
160 373 -183 0
-160 -374 184 0
160 374 -184 0
-160 -375 185 0
160 375 -185 0
-160 -376 186 0
160 376 -186 0
-160 -377 187 0
160 377 -187 0
-160 -378 188 0
160 378 -188 0
-160 -379 189 0
160 379 -189 0
-160 -380 190 0
160 380 -190 0
-160 -381 191 0
160 381 -191 0
-160 -382 192 0
160 382 -192 0
-160 -383 193 0
160 383 -193 0
-160 -384 194 0
160 384 -194 0
-160 -385 195 0
160 385 -195 0
-160 -386 196 0
160 386 -196 0
-160 -387 197 0
160 387 -197 0
-160 -388 198 0
160 388 -198 0
-160 -389 199 0
160 389 -199 0
-160 -390 200 0
160 390 -200 0
-160 -391 201 0
160 391 -201 0
-160 -392 202 0
160 392 -202 0
-160 -393 203 0
160 393 -203 0
-160 -394 204 0
160 394 -204 0
-160 -395 205 0
160 395 -205 0
-160 -396 206 0
160 396 -206 0
-161 -397 162 0
161 397 -162 0
-161 -398 163 0
161 398 -163 0
-161 -399 164 0
161 399 -164 0
-161 -400 165 0
161 400 -165 0
-161 -401 166 0
161 401 -166 0
-161 -402 167 0
161 402 -167 0
-161 -403 168 0
161 403 -168 0
-161 -404 169 0
161 404 -169 0
-161 -405 170 0
161 405 -170 0
-161 -406 171 0
161 406 -171 0
-161 -407 172 0
161 407 -172 0
-161 -408 173 0
161 408 -173 0
-161 -409 174 0
161 409 -174 0
-161 -410 175 0
161 410 -175 0
-161 -411 176 0
161 411 -176 0
-161 -412 177 0
161 412 -177 0
-161 -413 178 0
161 413 -178 0
-161 -414 179 0
161 414 -179 0
-161 -415 180 0
161 415 -180 0
-161 -416 181 0
161 416 -181 0
-161 -417 182 0
161 417 -182 0
-161 -418 183 0
161 418 -183 0
-161 -419 184 0
161 419 -184 0
-161 -420 185 0
161 420 -185 0
-161 -421 186 0
161 421 -186 0
-161 -422 187 0
161 422 -187 0
-161 -423 188 0
161 423 -188 0
-161 -424 189 0
161 424 -189 0
-161 -425 190 0
161 425 -190 0
-161 -426 191 0
161 426 -191 0
-161 -427 192 0
161 427 -192 0
-161 -428 193 0
161 428 -193 0
-161 -429 194 0
161 429 -194 0
-161 -430 195 0
161 430 -195 0
-161 -431 196 0
161 431 -196 0
-161 -432 197 0
161 432 -197 0
-161 -433 198 0
161 433 -198 0
-161 -434 199 0
161 434 -199 0
-161 -435 200 0
161 435 -200 0
-161 -436 201 0
161 436 -201 0
-161 -437 202 0
161 437 -202 0
-161 -438 203 0
161 438 -203 0
-161 -439 204 0
161 439 -204 0
-161 -440 205 0
161 440 -205 0
-161 -441 206 0
161 441 -206 0
-162 -442 163 0
162 442 -163 0
-162 -443 164 0
162 443 -164 0
-162 -444 165 0
162 444 -165 0
-162 -445 166 0
162 445 -166 0
-162 -446 167 0
162 446 -167 0
-162 -447 168 0
162 447 -168 0
-162 -448 169 0
162 448 -169 0
-162 -449 170 0
162 449 -170 0
-162 -450 171 0
162 450 -171 0
-162 -451 172 0
162 451 -172 0
-162 -452 173 0
162 452 -173 0
-162 -453 174 0
162 453 -174 0
-162 -454 175 0
162 454 -175 0
-162 -455 176 0
162 455 -176 0
-162 -456 177 0
162 456 -177 0
-162 -457 178 0
162 457 -178 0
-162 -458 179 0
162 458 -179 0
-162 -459 180 0
162 459 -180 0
-162 -460 181 0
162 460 -181 0
-162 -461 182 0
162 461 -182 0
-162 -462 183 0
162 462 -183 0
-162 -463 184 0
162 463 -184 0
-162 -464 185 0
162 464 -185 0
-162 -465 186 0
162 465 -186 0
-162 -466 187 0
162 466 -187 0
-162 -467 188 0
162 467 -188 0
-162 -468 189 0
162 468 -189 0
-162 -469 190 0
162 469 -190 0
-162 -470 191 0
162 470 -191 0
-162 -471 192 0
162 471 -192 0
-162 -472 193 0
162 472 -193 0
-162 -473 194 0
162 473 -194 0
-162 -474 195 0
162 474 -195 0
-162 -475 196 0
162 475 -196 0
-162 -476 197 0
162 476 -197 0
-162 -477 198 0
162 477 -198 0
-162 -478 199 0
162 478 -199 0
-162 -479 200 0
162 479 -200 0
-162 -480 201 0
162 480 -201 0
-162 -481 202 0
162 481 -202 0
-162 -482 203 0
162 482 -203 0
-162 -483 204 0
162 483 -204 0
-162 -484 205 0
162 484 -205 0
-162 -485 206 0
162 485 -206 0
-163 -486 164 0
163 486 -164 0
-163 -487 165 0
163 487 -165 0
-163 -488 166 0
163 488 -166 0
-163 -489 167 0
163 489 -167 0
-163 -490 168 0
163 490 -168 0
-163 -491 169 0
163 491 -169 0
-163 -492 170 0
163 492 -170 0
-163 -493 171 0
163 493 -171 0
-163 -494 172 0
163 494 -172 0
-163 -495 173 0
163 495 -173 0
-163 -496 174 0
163 496 -174 0
-163 -497 175 0
163 497 -175 0
-163 -498 176 0
163 498 -176 0
-163 -499 177 0
163 499 -177 0
-163 -500 178 0
163 500 -178 0
-163 -501 179 0
163 501 -179 0
-163 -502 180 0
163 502 -180 0
-163 -503 181 0
163 503 -181 0
-163 -504 182 0
163 504 -182 0
-163 -505 183 0
163 505 -183 0
-163 -506 184 0
163 506 -184 0
-163 -507 185 0
163 507 -185 0
-163 -508 186 0
163 508 -186 0
-163 -509 187 0
163 509 -187 0
-163 -510 188 0
163 510 -188 0
-163 -511 189 0
163 511 -189 0
-163 -512 190 0
163 512 -190 0
-163 -513 191 0
163 513 -191 0
-163 -514 192 0
163 514 -192 0
-163 -515 193 0
163 515 -193 0
-163 -516 194 0
163 516 -194 0
-163 -517 195 0
163 517 -195 0
-163 -518 196 0
163 518 -196 0
-163 -519 197 0
163 519 -197 0
-163 -520 198 0
163 520 -198 0
-163 -521 199 0
163 521 -199 0
-163 -522 200 0
163 522 -200 0
-163 -523 201 0
163 523 -201 0
-163 -524 202 0
163 524 -202 0
-163 -525 203 0
163 525 -203 0
-163 -526 204 0
163 526 -204 0
-163 -527 205 0
163 527 -205 0
-163 -528 206 0
163 528 -206 0
-164 -529 165 0
164 529 -165 0
-164 -530 166 0
164 530 -166 0
-164 -531 167 0
164 531 -167 0
-164 -532 168 0
164 532 -168 0
-164 -533 169 0
164 533 -169 0
-164 -534 170 0
164 534 -170 0
-164 -535 171 0
164 535 -171 0
-164 -536 172 0
164 536 -172 0
-164 -537 173 0
164 537 -173 0
-164 -538 174 0
164 538 -174 0
-164 -539 175 0
164 539 -175 0
-164 -540 176 0
164 540 -176 0
-164 -541 177 0
164 541 -177 0
-164 -542 178 0
164 542 -178 0
-164 -543 179 0
164 543 -179 0
-164 -544 180 0
164 544 -180 0
-164 -545 181 0
164 545 -181 0
-164 -546 182 0
164 546 -182 0
-164 -547 183 0
164 547 -183 0
-164 -548 184 0
164 548 -184 0
-164 -549 185 0
164 549 -185 0
-164 -550 186 0
164 550 -186 0
-164 -551 187 0
164 551 -187 0
-164 -552 188 0
164 552 -188 0
-164 -553 189 0
164 553 -189 0
-164 -554 190 0
164 554 -190 0
-164 -555 191 0
164 555 -191 0
-164 -556 192 0
164 556 -192 0
-164 -557 193 0
164 557 -193 0
-164 -558 194 0
164 558 -194 0
-164 -559 195 0
164 559 -195 0
-164 -560 196 0
164 560 -196 0
-164 -561 197 0
164 561 -197 0
-164 -562 198 0
164 562 -198 0
-164 -563 199 0
164 563 -199 0
-164 -564 200 0
164 564 -200 0
-164 -565 201 0
164 565 -201 0
-164 -566 202 0
164 566 -202 0
-164 -567 203 0
164 567 -203 0
-164 -568 204 0
164 568 -204 0
-164 -569 205 0
164 569 -205 0
-164 -570 206 0
164 570 -206 0
-165 -571 166 0
165 571 -166 0
-165 -572 167 0
165 572 -167 0
-165 -573 168 0
165 573 -168 0
-165 -574 169 0
165 574 -169 0
-165 -575 170 0
165 575 -170 0
-165 -576 171 0
165 576 -171 0
-165 -577 172 0
165 577 -172 0
-165 -578 173 0
165 578 -173 0
-165 -579 174 0
165 579 -174 0
-165 -580 175 0
165 580 -175 0
-165 -581 176 0
165 581 -176 0
-165 -582 177 0
165 582 -177 0
-165 -583 178 0
165 583 -178 0
-165 -584 179 0
165 584 -179 0
-165 -585 180 0
165 585 -180 0
-165 -586 181 0
165 586 -181 0
-165 -587 182 0
165 587 -182 0
-165 -588 183 0
165 588 -183 0
-165 -589 184 0
165 589 -184 0
-165 -590 185 0
165 590 -185 0
-165 -591 186 0
165 591 -186 0
-165 -592 187 0
165 592 -187 0
-165 -593 188 0
165 593 -188 0
-165 -594 189 0
165 594 -189 0
-165 -595 190 0
165 595 -190 0
-165 -596 191 0
165 596 -191 0
-165 -597 192 0
165 597 -192 0
-165 -598 193 0
165 598 -193 0
-165 -599 194 0
165 599 -194 0
-165 -600 195 0
165 600 -195 0
-165 -601 196 0
165 601 -196 0
-165 -602 197 0
165 602 -197 0
-165 -603 198 0
165 603 -198 0
-165 -604 199 0
165 604 -199 0
-165 -605 200 0
165 605 -200 0
-165 -606 201 0
165 606 -201 0
-165 -607 202 0
165 607 -202 0
-165 -608 203 0
165 608 -203 0
-165 -609 204 0
165 609 -204 0
-165 -610 205 0
165 610 -205 0
-165 -611 206 0
165 611 -206 0
-166 -612 167 0
166 612 -167 0
-166 -613 168 0
166 613 -168 0
-166 -614 169 0
166 614 -169 0
-166 -615 170 0
166 615 -170 0
-166 -616 171 0
166 616 -171 0
-166 -617 172 0
166 617 -172 0
-166 -618 173 0
166 618 -173 0
-166 -619 174 0
166 619 -174 0
-166 -620 175 0
166 620 -175 0
-166 -621 176 0
166 621 -176 0
-166 -622 177 0
166 622 -177 0
-166 -623 178 0
166 623 -178 0
-166 -624 179 0
166 624 -179 0
-166 -625 180 0
166 625 -180 0
-166 -626 181 0
166 626 -181 0
-166 -627 182 0
166 627 -182 0
-166 -628 183 0
166 628 -183 0
-166 -629 184 0
166 629 -184 0
-166 -630 185 0
166 630 -185 0
-166 -631 186 0
166 631 -186 0
-166 -632 187 0
166 632 -187 0
-166 -633 188 0
166 633 -188 0
-166 -634 189 0
166 634 -189 0
-166 -635 190 0
166 635 -190 0
-166 -636 191 0
166 636 -191 0
-166 -637 192 0
166 637 -192 0
-166 -638 193 0
166 638 -193 0
-166 -639 194 0
166 639 -194 0
-166 -640 195 0
166 640 -195 0
-166 -641 196 0
166 641 -196 0
-166 -642 197 0
166 642 -197 0
-166 -643 198 0
166 643 -198 0
-166 -644 199 0
166 644 -199 0
-166 -645 200 0
166 645 -200 0
-166 -646 201 0
166 646 -201 0
-166 -647 202 0
166 647 -202 0
-166 -648 203 0
166 648 -203 0
-166 -649 204 0
166 649 -204 0
-166 -650 205 0
166 650 -205 0
-166 -651 206 0
166 651 -206 0
-167 -652 168 0
167 652 -168 0
-167 -653 169 0
167 653 -169 0
-167 -654 170 0
167 654 -170 0
-167 -655 171 0
167 655 -171 0
-167 -656 172 0
167 656 -172 0
-167 -657 173 0
167 657 -173 0
-167 -658 174 0
167 658 -174 0
-167 -659 175 0
167 659 -175 0
-167 -660 176 0
167 660 -176 0
-167 -661 177 0
167 661 -177 0
-167 -662 178 0
167 662 -178 0
-167 -663 179 0
167 663 -179 0
-167 -664 180 0
167 664 -180 0
-167 -665 181 0
167 665 -181 0
-167 -666 182 0
167 666 -182 0
-167 -667 183 0
167 667 -183 0
-167 -668 184 0
167 668 -184 0
-167 -669 185 0
167 669 -185 0
-167 -670 186 0
167 670 -186 0
-167 -671 187 0
167 671 -187 0
-167 -672 188 0
167 672 -188 0
-167 -673 189 0
167 673 -189 0
-167 -674 190 0
167 674 -190 0
-167 -675 191 0
167 675 -191 0
-167 -676 192 0
167 676 -192 0
-167 -677 193 0
167 677 -193 0
-167 -678 194 0
167 678 -194 0
-167 -679 195 0
167 679 -195 0
-167 -680 196 0
167 680 -196 0
-167 -681 197 0
167 681 -197 0
-167 -682 198 0
167 682 -198 0
-167 -683 199 0
167 683 -199 0
-167 -684 200 0
167 684 -200 0
-167 -685 201 0
167 685 -201 0
-167 -686 202 0
167 686 -202 0
-167 -687 203 0
167 687 -203 0
-167 -688 204 0
167 688 -204 0
-167 -689 205 0
167 689 -205 0
-167 -690 206 0
167 690 -206 0
-168 -691 169 0
168 691 -169 0
-168 -692 170 0
168 692 -170 0
-168 -693 171 0
168 693 -171 0
-168 -694 172 0
168 694 -172 0
-168 -695 173 0
168 695 -173 0
-168 -696 174 0
168 696 -174 0
-168 -697 175 0
168 697 -175 0
-168 -698 176 0
168 698 -176 0
-168 -699 177 0
168 699 -177 0
-168 -700 178 0
168 700 -178 0
-168 -701 179 0
168 701 -179 0
-168 -702 180 0
168 702 -180 0
-168 -703 181 0
168 703 -181 0
-168 -704 182 0
168 704 -182 0
-168 -705 183 0
168 705 -183 0
-168 -706 184 0
168 706 -184 0
-168 -707 185 0
168 707 -185 0
-168 -708 186 0
168 708 -186 0
-168 -709 187 0
168 709 -187 0
-168 -710 188 0
168 710 -188 0
-168 -711 189 0
168 711 -189 0
-168 -712 190 0
168 712 -190 0
-168 -713 191 0
168 713 -191 0
-168 -714 192 0
168 714 -192 0
-168 -715 193 0
168 715 -193 0
-168 -716 194 0
168 716 -194 0
-168 -717 195 0
168 717 -195 0
-168 -718 196 0
168 718 -196 0
-168 -719 197 0
168 719 -197 0
-168 -720 198 0
168 720 -198 0
-168 -721 199 0
168 721 -199 0
-168 -722 200 0
168 722 -200 0
-168 -723 201 0
168 723 -201 0
-168 -724 202 0
168 724 -202 0
-168 -725 203 0
168 725 -203 0
-168 -726 204 0
168 726 -204 0
-168 -727 205 0
168 727 -205 0
-168 -728 206 0
168 728 -206 0
-169 -729 170 0
169 729 -170 0
-169 -730 171 0
169 730 -171 0
-169 -731 172 0
169 731 -172 0
-169 -732 173 0
169 732 -173 0
-169 -733 174 0
169 733 -174 0
-169 -734 175 0
169 734 -175 0
-169 -735 176 0
169 735 -176 0
-169 -736 177 0
169 736 -177 0
-169 -737 178 0
169 737 -178 0
-169 -738 179 0
169 738 -179 0
-169 -739 180 0
169 739 -180 0
-169 -740 181 0
169 740 -181 0
-169 -741 182 0
169 741 -182 0
-169 -742 183 0
169 742 -183 0
-169 -743 184 0
169 743 -184 0
-169 -744 185 0
169 744 -185 0
-169 -745 186 0
169 745 -186 0
-169 -746 187 0
169 746 -187 0
-169 -747 188 0
169 747 -188 0
-169 -748 189 0
169 748 -189 0
-169 -749 190 0
169 749 -190 0
-169 -750 191 0
169 750 -191 0
-169 -751 192 0
169 751 -192 0
-169 -752 193 0
169 752 -193 0
-169 -753 194 0
169 753 -194 0
-169 -754 195 0
169 754 -195 0
-169 -755 196 0
169 755 -196 0
-169 -756 197 0
169 756 -197 0
-169 -757 198 0
169 757 -198 0
-169 -758 199 0
169 758 -199 0
-169 -759 200 0
169 759 -200 0
-169 -760 201 0
169 760 -201 0
-169 -761 202 0
169 761 -202 0
-169 -762 203 0
169 762 -203 0
-169 -763 204 0
169 763 -204 0
-169 -764 205 0
169 764 -205 0
-169 -765 206 0
169 765 -206 0
-170 -766 171 0
170 766 -171 0
-170 -767 172 0
170 767 -172 0
-170 -768 173 0
170 768 -173 0
-170 -769 174 0
170 769 -174 0
-170 -770 175 0
170 770 -175 0
-170 -771 176 0
170 771 -176 0
-170 -772 177 0
170 772 -177 0
-170 -773 178 0
170 773 -178 0
-170 -774 179 0
170 774 -179 0
-170 -775 180 0
170 775 -180 0
-170 -776 181 0
170 776 -181 0
-170 -777 182 0
170 777 -182 0
-170 -778 183 0
170 778 -183 0
-170 -779 184 0
170 779 -184 0
-170 -780 185 0
170 780 -185 0
-170 -781 186 0
170 781 -186 0
-170 -782 187 0
170 782 -187 0
-170 -783 188 0
170 783 -188 0
-170 -784 189 0
170 784 -189 0
-170 -785 190 0
170 785 -190 0
-170 -786 191 0
170 786 -191 0
-170 -787 192 0
170 787 -192 0
-170 -788 193 0
170 788 -193 0
-170 -789 194 0
170 789 -194 0
-170 -790 195 0
170 790 -195 0
-170 -791 196 0
170 791 -196 0
-170 -792 197 0
170 792 -197 0
-170 -793 198 0
170 793 -198 0
-170 -794 199 0
170 794 -199 0
-170 -795 200 0
170 795 -200 0
-170 -796 201 0
170 796 -201 0
-170 -797 202 0
170 797 -202 0
-170 -798 203 0
170 798 -203 0
-170 -799 204 0
170 799 -204 0
-170 -800 205 0
170 800 -205 0
-170 -801 206 0
170 801 -206 0
-171 -802 172 0
171 802 -172 0
-171 -803 173 0
171 803 -173 0
-171 -804 174 0
171 804 -174 0
-171 -805 175 0
171 805 -175 0
-171 -806 176 0
171 806 -176 0
-171 -807 177 0
171 807 -177 0
-171 -808 178 0
171 808 -178 0
-171 -809 179 0
171 809 -179 0
-171 -810 180 0
171 810 -180 0
-171 -811 181 0
171 811 -181 0
-171 -812 182 0
171 812 -182 0
-171 -813 183 0
171 813 -183 0
-171 -814 184 0
171 814 -184 0
-171 -815 185 0
171 815 -185 0
-171 -816 186 0
171 816 -186 0
-171 -817 187 0
171 817 -187 0
-171 -818 188 0
171 818 -188 0
-171 -819 189 0
171 819 -189 0
-171 -820 190 0
171 820 -190 0
-171 -821 191 0
171 821 -191 0
-171 -822 192 0
171 822 -192 0
-171 -823 193 0
171 823 -193 0
-171 -824 194 0
171 824 -194 0
-171 -825 195 0
171 825 -195 0
-171 -826 196 0
171 826 -196 0
-171 -827 197 0
171 827 -197 0
-171 -828 198 0
171 828 -198 0
-171 -829 199 0
171 829 -199 0
-171 -830 200 0
171 830 -200 0
-171 -831 201 0
171 831 -201 0
-171 -832 202 0
171 832 -202 0
-171 -833 203 0
171 833 -203 0
-171 -834 204 0
171 834 -204 0
-171 -835 205 0
171 835 -205 0
-171 -836 206 0
171 836 -206 0
-172 -837 173 0
172 837 -173 0
-172 -838 174 0
172 838 -174 0
-172 -839 175 0
172 839 -175 0
-172 -840 176 0
172 840 -176 0
-172 -841 177 0
172 841 -177 0
-172 -842 178 0
172 842 -178 0
-172 -843 179 0
172 843 -179 0
-172 -844 180 0
172 844 -180 0
-172 -845 181 0
172 845 -181 0
-172 -846 182 0
172 846 -182 0
-172 -847 183 0
172 847 -183 0
-172 -848 184 0
172 848 -184 0
-172 -849 185 0
172 849 -185 0
-172 -850 186 0
172 850 -186 0
-172 -851 187 0
172 851 -187 0
-172 -852 188 0
172 852 -188 0
-172 -853 189 0
172 853 -189 0
-172 -854 190 0
172 854 -190 0
-172 -855 191 0
172 855 -191 0
-172 -856 192 0
172 856 -192 0
-172 -857 193 0
172 857 -193 0
-172 -858 194 0
172 858 -194 0
-172 -859 195 0
172 859 -195 0
-172 -860 196 0
172 860 -196 0
-172 -861 197 0
172 861 -197 0
-172 -862 198 0
172 862 -198 0
-172 -863 199 0
172 863 -199 0
-172 -864 200 0
172 864 -200 0
-172 -865 201 0
172 865 -201 0
-172 -866 202 0
172 866 -202 0
-172 -867 203 0
172 867 -203 0
-172 -868 204 0
172 868 -204 0
-172 -869 205 0
172 869 -205 0
-172 -870 206 0
172 870 -206 0
-173 -871 174 0
173 871 -174 0
-173 -872 175 0
173 872 -175 0
-173 -873 176 0
173 873 -176 0
-173 -874 177 0
173 874 -177 0
-173 -875 178 0
173 875 -178 0
-173 -876 179 0
173 876 -179 0
-173 -877 180 0
173 877 -180 0
-173 -878 181 0
173 878 -181 0
-173 -879 182 0
173 879 -182 0
-173 -880 183 0
173 880 -183 0
-173 -881 184 0
173 881 -184 0
-173 -882 185 0
173 882 -185 0
-173 -883 186 0
173 883 -186 0
-173 -884 187 0
173 884 -187 0
-173 -885 188 0
173 885 -188 0
-173 -886 189 0
173 886 -189 0
-173 -887 190 0
173 887 -190 0
-173 -888 191 0
173 888 -191 0
-173 -889 192 0
173 889 -192 0
-173 -890 193 0
173 890 -193 0
-173 -891 194 0
173 891 -194 0
-173 -892 195 0
173 892 -195 0
-173 -893 196 0
173 893 -196 0
-173 -894 197 0
173 894 -197 0
-173 -895 198 0
173 895 -198 0
-173 -896 199 0
173 896 -199 0
-173 -897 200 0
173 897 -200 0
-173 -898 201 0
173 898 -201 0
-173 -899 202 0
173 899 -202 0
-173 -900 203 0
173 900 -203 0
-173 -901 204 0
173 901 -204 0
-173 -902 205 0
173 902 -205 0
-173 -903 206 0
173 903 -206 0
-174 -904 175 0
174 904 -175 0
-174 -905 176 0
174 905 -176 0
-174 -906 177 0
174 906 -177 0
-174 -907 178 0
174 907 -178 0
-174 -908 179 0
174 908 -179 0
-174 -909 180 0
174 909 -180 0
-174 -910 181 0
174 910 -181 0
-174 -911 182 0
174 911 -182 0
-174 -912 183 0
174 912 -183 0
-174 -913 184 0
174 913 -184 0
-174 -914 185 0
174 914 -185 0
-174 -915 186 0
174 915 -186 0
-174 -916 187 0
174 916 -187 0
-174 -917 188 0
174 917 -188 0
-174 -918 189 0
174 918 -189 0
-174 -919 190 0
174 919 -190 0
-174 -920 191 0
174 920 -191 0
-174 -921 192 0
174 921 -192 0
-174 -922 193 0
174 922 -193 0
-174 -923 194 0
174 923 -194 0
-174 -924 195 0
174 924 -195 0
-174 -925 196 0
174 925 -196 0
-174 -926 197 0
174 926 -197 0
-174 -927 198 0
174 927 -198 0
-174 -928 199 0
174 928 -199 0
-174 -929 200 0
174 929 -200 0
-174 -930 201 0
174 930 -201 0
-174 -931 202 0
174 931 -202 0
-174 -932 203 0
174 932 -203 0
-174 -933 204 0
174 933 -204 0
-174 -934 205 0
174 934 -205 0
-174 -935 206 0
174 935 -206 0
-175 -936 176 0
175 936 -176 0
-175 -937 177 0
175 937 -177 0
-175 -938 178 0
175 938 -178 0
-175 -939 179 0
175 939 -179 0
-175 -940 180 0
175 940 -180 0
-175 -941 181 0
175 941 -181 0
-175 -942 182 0
175 942 -182 0
-175 -943 183 0
175 943 -183 0
-175 -944 184 0
175 944 -184 0
-175 -945 185 0
175 945 -185 0
-175 -946 186 0
175 946 -186 0
-175 -947 187 0
175 947 -187 0
-175 -948 188 0
175 948 -188 0
-175 -949 189 0
175 949 -189 0
-175 -950 190 0
175 950 -190 0
-175 -951 191 0
175 951 -191 0
-175 -952 192 0
175 952 -192 0
-175 -953 193 0
175 953 -193 0
-175 -954 194 0
175 954 -194 0
-175 -955 195 0
175 955 -195 0
-175 -956 196 0
175 956 -196 0
-175 -957 197 0
175 957 -197 0
-175 -958 198 0
175 958 -198 0
-175 -959 199 0
175 959 -199 0
-175 -960 200 0
175 960 -200 0
-175 -961 201 0
175 961 -201 0
-175 -962 202 0
175 962 -202 0
-175 -963 203 0
175 963 -203 0
-175 -964 204 0
175 964 -204 0
-175 -965 205 0
175 965 -205 0
-175 -966 206 0
175 966 -206 0
-176 -967 177 0
176 967 -177 0
-176 -968 178 0
176 968 -178 0
-176 -969 179 0
176 969 -179 0
-176 -970 180 0
176 970 -180 0
-176 -971 181 0
176 971 -181 0
-176 -972 182 0
176 972 -182 0
-176 -973 183 0
176 973 -183 0
-176 -974 184 0
176 974 -184 0
-176 -975 185 0
176 975 -185 0
-176 -976 186 0
176 976 -186 0
-176 -977 187 0
176 977 -187 0
-176 -978 188 0
176 978 -188 0
-176 -979 189 0
176 979 -189 0
-176 -980 190 0
176 980 -190 0
-176 -981 191 0
176 981 -191 0
-176 -982 192 0
176 982 -192 0
-176 -983 193 0
176 983 -193 0
-176 -984 194 0
176 984 -194 0
-176 -985 195 0
176 985 -195 0
-176 -986 196 0
176 986 -196 0
-176 -987 197 0
176 987 -197 0
-176 -988 198 0
176 988 -198 0
-176 -989 199 0
176 989 -199 0
-176 -990 200 0
176 990 -200 0
-176 -991 201 0
176 991 -201 0
-176 -992 202 0
176 992 -202 0
-176 -993 203 0
176 993 -203 0
-176 -994 204 0
176 994 -204 0
-176 -995 205 0
176 995 -205 0
-176 -996 206 0
176 996 -206 0
-177 -997 178 0
177 997 -178 0
-177 -998 179 0
177 998 -179 0
-177 -999 180 0
177 999 -180 0
-177 -1000 181 0
177 1000 -181 0
-177 -1001 182 0
177 1001 -182 0
-177 -1002 183 0
177 1002 -183 0
-177 -1003 184 0
177 1003 -184 0
-177 -1004 185 0
177 1004 -185 0
-177 -1005 186 0
177 1005 -186 0
-177 -1006 187 0
177 1006 -187 0
-177 -1007 188 0
177 1007 -188 0
-177 -1008 189 0
177 1008 -189 0
-177 -1009 190 0
177 1009 -190 0
-177 -1010 191 0
177 1010 -191 0
-177 -1011 192 0
177 1011 -192 0
-177 -1012 193 0
177 1012 -193 0
-177 -1013 194 0
177 1013 -194 0
-177 -1014 195 0
177 1014 -195 0
-177 -1015 196 0
177 1015 -196 0
-177 -1016 197 0
177 1016 -197 0
-177 -1017 198 0
177 1017 -198 0
-177 -1018 199 0
177 1018 -199 0
-177 -1019 200 0
177 1019 -200 0
-177 -1020 201 0
177 1020 -201 0
-177 -1021 202 0
177 1021 -202 0
-177 -1022 203 0
177 1022 -203 0
-177 -1023 204 0
177 1023 -204 0
-177 -1024 205 0
177 1024 -205 0
-177 -1025 206 0
177 1025 -206 0
-178 -1026 179 0
178 1026 -179 0
-178 -1027 180 0
178 1027 -180 0
-178 -1028 181 0
178 1028 -181 0
-178 -1029 182 0
178 1029 -182 0
-178 -1030 183 0
178 1030 -183 0
-178 -1031 184 0
178 1031 -184 0
-178 -1032 185 0
178 1032 -185 0
-178 -1033 186 0
178 1033 -186 0
-178 -1034 187 0
178 1034 -187 0
-178 -1035 188 0
178 1035 -188 0
-178 -1036 189 0
178 1036 -189 0
-178 -1037 190 0
178 1037 -190 0
-178 -1038 191 0
178 1038 -191 0
-178 -1039 192 0
178 1039 -192 0
-178 -1040 193 0
178 1040 -193 0
-178 -1041 194 0
178 1041 -194 0
-178 -1042 195 0
178 1042 -195 0
-178 -1043 196 0
178 1043 -196 0
-178 -1044 197 0
178 1044 -197 0
-178 -1045 198 0
178 1045 -198 0
-178 -1046 199 0
178 1046 -199 0
-178 -1047 200 0
178 1047 -200 0
-178 -1048 201 0
178 1048 -201 0
-178 -1049 202 0
178 1049 -202 0
-178 -1050 203 0
178 1050 -203 0
-178 -1051 204 0
178 1051 -204 0
-178 -1052 205 0
178 1052 -205 0
-178 -1053 206 0
178 1053 -206 0
-179 -1054 180 0
179 1054 -180 0
-179 -1055 181 0
179 1055 -181 0
-179 -1056 182 0
179 1056 -182 0
-179 -1057 183 0
179 1057 -183 0
-179 -1058 184 0
179 1058 -184 0
-179 -1059 185 0
179 1059 -185 0
-179 -1060 186 0
179 1060 -186 0
-179 -1061 187 0
179 1061 -187 0
-179 -1062 188 0
179 1062 -188 0
-179 -1063 189 0
179 1063 -189 0
-179 -1064 190 0
179 1064 -190 0
-179 -1065 191 0
179 1065 -191 0
-179 -1066 192 0
179 1066 -192 0
-179 -1067 193 0
179 1067 -193 0
-179 -1068 194 0
179 1068 -194 0
-179 -1069 195 0
179 1069 -195 0
-179 -1070 196 0
179 1070 -196 0
-179 -1071 197 0
179 1071 -197 0
-179 -1072 198 0
179 1072 -198 0
-179 -1073 199 0
179 1073 -199 0
-179 -1074 200 0
179 1074 -200 0
-179 -1075 201 0
179 1075 -201 0
-179 -1076 202 0
179 1076 -202 0
-179 -1077 203 0
179 1077 -203 0
-179 -1078 204 0
179 1078 -204 0
-179 -1079 205 0
179 1079 -205 0
-179 -1080 206 0
179 1080 -206 0
-180 -1081 181 0
180 1081 -181 0
-180 -1082 182 0
180 1082 -182 0
-180 -1083 183 0
180 1083 -183 0
-180 -1084 184 0
180 1084 -184 0
-180 -1085 185 0
180 1085 -185 0
-180 -1086 186 0
180 1086 -186 0
-180 -1087 187 0
180 1087 -187 0
-180 -1088 188 0
180 1088 -188 0
-180 -1089 189 0
180 1089 -189 0
-180 -1090 190 0
180 1090 -190 0
-180 -1091 191 0
180 1091 -191 0
-180 -1092 192 0
180 1092 -192 0
-180 -1093 193 0
180 1093 -193 0
-180 -1094 194 0
180 1094 -194 0
-180 -1095 195 0
180 1095 -195 0
-180 -1096 196 0
180 1096 -196 0
-180 -1097 197 0
180 1097 -197 0
-180 -1098 198 0
180 1098 -198 0
-180 -1099 199 0
180 1099 -199 0
-180 -1100 200 0
180 1100 -200 0
-180 -1101 201 0
180 1101 -201 0
-180 -1102 202 0
180 1102 -202 0
-180 -1103 203 0
180 1103 -203 0
-180 -1104 204 0
180 1104 -204 0
-180 -1105 205 0
180 1105 -205 0
-180 -1106 206 0
180 1106 -206 0
-181 -1107 182 0
181 1107 -182 0
-181 -1108 183 0
181 1108 -183 0
-181 -1109 184 0
181 1109 -184 0
-181 -1110 185 0
181 1110 -185 0
-181 -1111 186 0
181 1111 -186 0
-181 -1112 187 0
181 1112 -187 0
-181 -1113 188 0
181 1113 -188 0
-181 -1114 189 0
181 1114 -189 0
-181 -1115 190 0
181 1115 -190 0
-181 -1116 191 0
181 1116 -191 0
-181 -1117 192 0
181 1117 -192 0
-181 -1118 193 0
181 1118 -193 0
-181 -1119 194 0
181 1119 -194 0
-181 -1120 195 0
181 1120 -195 0
-181 -1121 196 0
181 1121 -196 0
-181 -1122 197 0
181 1122 -197 0
-181 -1123 198 0
181 1123 -198 0
-181 -1124 199 0
181 1124 -199 0
-181 -1125 200 0
181 1125 -200 0
-181 -1126 201 0
181 1126 -201 0
-181 -1127 202 0
181 1127 -202 0
-181 -1128 203 0
181 1128 -203 0
-181 -1129 204 0
181 1129 -204 0
-181 -1130 205 0
181 1130 -205 0
-181 -1131 206 0
181 1131 -206 0
-182 -1132 183 0
182 1132 -183 0
-182 -1133 184 0
182 1133 -184 0
-182 -1134 185 0
182 1134 -185 0
-182 -1135 186 0
182 1135 -186 0
-182 -1136 187 0
182 1136 -187 0
-182 -1137 188 0
182 1137 -188 0
-182 -1138 189 0
182 1138 -189 0
-182 -1139 190 0
182 1139 -190 0
-182 -1140 191 0
182 1140 -191 0
-182 -1141 192 0
182 1141 -192 0
-182 -1142 193 0
182 1142 -193 0
-182 -1143 194 0
182 1143 -194 0
-182 -1144 195 0
182 1144 -195 0
-182 -1145 196 0
182 1145 -196 0
-182 -1146 197 0
182 1146 -197 0
-182 -1147 198 0
182 1147 -198 0
-182 -1148 199 0
182 1148 -199 0
-182 -1149 200 0
182 1149 -200 0
-182 -1150 201 0
182 1150 -201 0
-182 -1151 202 0
182 1151 -202 0
-182 -1152 203 0
182 1152 -203 0
-182 -1153 204 0
182 1153 -204 0
-182 -1154 205 0
182 1154 -205 0
-182 -1155 206 0
182 1155 -206 0
-183 -1156 184 0
183 1156 -184 0
-183 -1157 185 0
183 1157 -185 0
-183 -1158 186 0
183 1158 -186 0
-183 -1159 187 0
183 1159 -187 0
-183 -1160 188 0
183 1160 -188 0
-183 -1161 189 0
183 1161 -189 0
-183 -1162 190 0
183 1162 -190 0
-183 -1163 191 0
183 1163 -191 0
-183 -1164 192 0
183 1164 -192 0
-183 -1165 193 0
183 1165 -193 0
-183 -1166 194 0
183 1166 -194 0
-183 -1167 195 0
183 1167 -195 0
-183 -1168 196 0
183 1168 -196 0
-183 -1169 197 0
183 1169 -197 0
-183 -1170 198 0
183 1170 -198 0
-183 -1171 199 0
183 1171 -199 0
-183 -1172 200 0
183 1172 -200 0
-183 -1173 201 0
183 1173 -201 0
-183 -1174 202 0
183 1174 -202 0
-183 -1175 203 0
183 1175 -203 0
-183 -1176 204 0
183 1176 -204 0
-183 -1177 205 0
183 1177 -205 0
-183 -1178 206 0
183 1178 -206 0
-184 -1179 185 0
184 1179 -185 0
-184 -1180 186 0
184 1180 -186 0
-184 -1181 187 0
184 1181 -187 0
-184 -1182 188 0
184 1182 -188 0
-184 -1183 189 0
184 1183 -189 0
-184 -1184 190 0
184 1184 -190 0
-184 -1185 191 0
184 1185 -191 0
-184 -1186 192 0
184 1186 -192 0
-184 -1187 193 0
184 1187 -193 0
-184 -1188 194 0
184 1188 -194 0
-184 -1189 195 0
184 1189 -195 0
-184 -1190 196 0
184 1190 -196 0
-184 -1191 197 0
184 1191 -197 0
-184 -1192 198 0
184 1192 -198 0
-184 -1193 199 0
184 1193 -199 0
-184 -1194 200 0
184 1194 -200 0
-184 -1195 201 0
184 1195 -201 0
-184 -1196 202 0
184 1196 -202 0
-184 -1197 203 0
184 1197 -203 0
-184 -1198 204 0
184 1198 -204 0
-184 -1199 205 0
184 1199 -205 0
-184 -1200 206 0
184 1200 -206 0
-185 -1201 186 0
185 1201 -186 0
-185 -1202 187 0
185 1202 -187 0
-185 -1203 188 0
185 1203 -188 0
-185 -1204 189 0
185 1204 -189 0
-185 -1205 190 0
185 1205 -190 0
-185 -1206 191 0
185 1206 -191 0
-185 -1207 192 0
185 1207 -192 0
-185 -1208 193 0
185 1208 -193 0
-185 -1209 194 0
185 1209 -194 0
-185 -1210 195 0
185 1210 -195 0
-185 -1211 196 0
185 1211 -196 0
-185 -1212 197 0
185 1212 -197 0
-185 -1213 198 0
185 1213 -198 0
-185 -1214 199 0
185 1214 -199 0
-185 -1215 200 0
185 1215 -200 0
-185 -1216 201 0
185 1216 -201 0
-185 -1217 202 0
185 1217 -202 0
-185 -1218 203 0
185 1218 -203 0
-185 -1219 204 0
185 1219 -204 0
-185 -1220 205 0
185 1220 -205 0
-185 -1221 206 0
185 1221 -206 0
-186 -1222 187 0
186 1222 -187 0
-186 -1223 188 0
186 1223 -188 0
-186 -1224 189 0
186 1224 -189 0
-186 -1225 190 0
186 1225 -190 0
-186 -1226 191 0
186 1226 -191 0
-186 -1227 192 0
186 1227 -192 0
-186 -1228 193 0
186 1228 -193 0
-186 -1229 194 0
186 1229 -194 0
-186 -1230 195 0
186 1230 -195 0
-186 -1231 196 0
186 1231 -196 0
-186 -1232 197 0
186 1232 -197 0
-186 -1233 198 0
186 1233 -198 0
-186 -1234 199 0
186 1234 -199 0
-186 -1235 200 0
186 1235 -200 0
-186 -1236 201 0
186 1236 -201 0
-186 -1237 202 0
186 1237 -202 0
-186 -1238 203 0
186 1238 -203 0
-186 -1239 204 0
186 1239 -204 0
-186 -1240 205 0
186 1240 -205 0
-186 -1241 206 0
186 1241 -206 0
-187 -1242 188 0
187 1242 -188 0
-187 -1243 189 0
187 1243 -189 0
-187 -1244 190 0
187 1244 -190 0
-187 -1245 191 0
187 1245 -191 0
-187 -1246 192 0
187 1246 -192 0
-187 -1247 193 0
187 1247 -193 0
-187 -1248 194 0
187 1248 -194 0
-187 -1249 195 0
187 1249 -195 0
-187 -1250 196 0
187 1250 -196 0
-187 -1251 197 0
187 1251 -197 0
-187 -1252 198 0
187 1252 -198 0
-187 -1253 199 0
187 1253 -199 0
-187 -1254 200 0
187 1254 -200 0
-187 -1255 201 0
187 1255 -201 0
-187 -1256 202 0
187 1256 -202 0
-187 -1257 203 0
187 1257 -203 0
-187 -1258 204 0
187 1258 -204 0
-187 -1259 205 0
187 1259 -205 0
-187 -1260 206 0
187 1260 -206 0
-188 -1261 189 0
188 1261 -189 0
-188 -1262 190 0
188 1262 -190 0
-188 -1263 191 0
188 1263 -191 0
-188 -1264 192 0
188 1264 -192 0
-188 -1265 193 0
188 1265 -193 0
-188 -1266 194 0
188 1266 -194 0
-188 -1267 195 0
188 1267 -195 0
-188 -1268 196 0
188 1268 -196 0
-188 -1269 197 0
188 1269 -197 0
-188 -1270 198 0
188 1270 -198 0
-188 -1271 199 0
188 1271 -199 0
-188 -1272 200 0
188 1272 -200 0
-188 -1273 201 0
188 1273 -201 0
-188 -1274 202 0
188 1274 -202 0
-188 -1275 203 0
188 1275 -203 0
-188 -1276 204 0
188 1276 -204 0
-188 -1277 205 0
188 1277 -205 0
-188 -1278 206 0
188 1278 -206 0
-189 -1279 190 0
189 1279 -190 0
-189 -1280 191 0
189 1280 -191 0
-189 -1281 192 0
189 1281 -192 0
-189 -1282 193 0
189 1282 -193 0
-189 -1283 194 0
189 1283 -194 0
-189 -1284 195 0
189 1284 -195 0
-189 -1285 196 0
189 1285 -196 0
-189 -1286 197 0
189 1286 -197 0
-189 -1287 198 0
189 1287 -198 0
-189 -1288 199 0
189 1288 -199 0
-189 -1289 200 0
189 1289 -200 0
-189 -1290 201 0
189 1290 -201 0
-189 -1291 202 0
189 1291 -202 0
-189 -1292 203 0
189 1292 -203 0
-189 -1293 204 0
189 1293 -204 0
-189 -1294 205 0
189 1294 -205 0
-189 -1295 206 0
189 1295 -206 0
-190 -1296 191 0
190 1296 -191 0
-190 -1297 192 0
190 1297 -192 0
-190 -1298 193 0
190 1298 -193 0
-190 -1299 194 0
190 1299 -194 0
-190 -1300 195 0
190 1300 -195 0
-190 -1301 196 0
190 1301 -196 0
-190 -1302 197 0
190 1302 -197 0
-190 -1303 198 0
190 1303 -198 0
-190 -1304 199 0
190 1304 -199 0
-190 -1305 200 0
190 1305 -200 0
-190 -1306 201 0
190 1306 -201 0
-190 -1307 202 0
190 1307 -202 0
-190 -1308 203 0
190 1308 -203 0
-190 -1309 204 0
190 1309 -204 0
-190 -1310 205 0
190 1310 -205 0
-190 -1311 206 0
190 1311 -206 0
-191 -1312 192 0
191 1312 -192 0
-191 -1313 193 0
191 1313 -193 0
-191 -1314 194 0
191 1314 -194 0
-191 -1315 195 0
191 1315 -195 0
-191 -1316 196 0
191 1316 -196 0
-191 -1317 197 0
191 1317 -197 0
-191 -1318 198 0
191 1318 -198 0
-191 -1319 199 0
191 1319 -199 0
-191 -1320 200 0
191 1320 -200 0
-191 -1321 201 0
191 1321 -201 0
-191 -1322 202 0
191 1322 -202 0
-191 -1323 203 0
191 1323 -203 0
-191 -1324 204 0
191 1324 -204 0
-191 -1325 205 0
191 1325 -205 0
-191 -1326 206 0
191 1326 -206 0
-192 -1327 193 0
192 1327 -193 0
-192 -1328 194 0
192 1328 -194 0
-192 -1329 195 0
192 1329 -195 0
-192 -1330 196 0
192 1330 -196 0
-192 -1331 197 0
192 1331 -197 0
-192 -1332 198 0
192 1332 -198 0
-192 -1333 199 0
192 1333 -199 0
-192 -1334 200 0
192 1334 -200 0
-192 -1335 201 0
192 1335 -201 0
-192 -1336 202 0
192 1336 -202 0
-192 -1337 203 0
192 1337 -203 0
-192 -1338 204 0
192 1338 -204 0
-192 -1339 205 0
192 1339 -205 0
-192 -1340 206 0
192 1340 -206 0
-193 -1341 194 0
193 1341 -194 0
-193 -1342 195 0
193 1342 -195 0
-193 -1343 196 0
193 1343 -196 0
-193 -1344 197 0
193 1344 -197 0
-193 -1345 198 0
193 1345 -198 0
-193 -1346 199 0
193 1346 -199 0
-193 -1347 200 0
193 1347 -200 0
-193 -1348 201 0
193 1348 -201 0
-193 -1349 202 0
193 1349 -202 0
-193 -1350 203 0
193 1350 -203 0
-193 -1351 204 0
193 1351 -204 0
-193 -1352 205 0
193 1352 -205 0
-193 -1353 206 0
193 1353 -206 0
-194 -1354 195 0
194 1354 -195 0
-194 -1355 196 0
194 1355 -196 0
-194 -1356 197 0
194 1356 -197 0
-194 -1357 198 0
194 1357 -198 0
-194 -1358 199 0
194 1358 -199 0
-194 -1359 200 0
194 1359 -200 0
-194 -1360 201 0
194 1360 -201 0
-194 -1361 202 0
194 1361 -202 0
-194 -1362 203 0
194 1362 -203 0
-194 -1363 204 0
194 1363 -204 0
-194 -1364 205 0
194 1364 -205 0
-194 -1365 206 0
194 1365 -206 0
-195 -1366 196 0
195 1366 -196 0
-195 -1367 197 0
195 1367 -197 0
-195 -1368 198 0
195 1368 -198 0
-195 -1369 199 0
195 1369 -199 0
-195 -1370 200 0
195 1370 -200 0
-195 -1371 201 0
195 1371 -201 0
-195 -1372 202 0
195 1372 -202 0
-195 -1373 203 0
195 1373 -203 0
-195 -1374 204 0
195 1374 -204 0
-195 -1375 205 0
195 1375 -205 0
-195 -1376 206 0
195 1376 -206 0
-196 -1377 197 0
196 1377 -197 0
-196 -1378 198 0
196 1378 -198 0
-196 -1379 199 0
196 1379 -199 0
-196 -1380 200 0
196 1380 -200 0
-196 -1381 201 0
196 1381 -201 0
-196 -1382 202 0
196 1382 -202 0
-196 -1383 203 0
196 1383 -203 0
-196 -1384 204 0
196 1384 -204 0
-196 -1385 205 0
196 1385 -205 0
-196 -1386 206 0
196 1386 -206 0
-197 -1387 198 0
197 1387 -198 0
-197 -1388 199 0
197 1388 -199 0
-197 -1389 200 0
197 1389 -200 0
-197 -1390 201 0
197 1390 -201 0
-197 -1391 202 0
197 1391 -202 0
-197 -1392 203 0
197 1392 -203 0
-197 -1393 204 0
197 1393 -204 0
-197 -1394 205 0
197 1394 -205 0
-197 -1395 206 0
197 1395 -206 0
-198 -1396 199 0
198 1396 -199 0
-198 -1397 200 0
198 1397 -200 0
-198 -1398 201 0
198 1398 -201 0
-198 -1399 202 0
198 1399 -202 0
-198 -1400 203 0
198 1400 -203 0
-198 -1401 204 0
198 1401 -204 0
-198 -1402 205 0
198 1402 -205 0
-198 -1403 206 0
198 1403 -206 0
-199 -1404 200 0
199 1404 -200 0
-199 -1405 201 0
199 1405 -201 0
-199 -1406 202 0
199 1406 -202 0
-199 -1407 203 0
199 1407 -203 0
-199 -1408 204 0
199 1408 -204 0
-199 -1409 205 0
199 1409 -205 0
-199 -1410 206 0
199 1410 -206 0
-200 -1411 201 0
200 1411 -201 0
-200 -1412 202 0
200 1412 -202 0
-200 -1413 203 0
200 1413 -203 0
-200 -1414 204 0
200 1414 -204 0
-200 -1415 205 0
200 1415 -205 0
-200 -1416 206 0
200 1416 -206 0
-201 -1417 202 0
201 1417 -202 0
-201 -1418 203 0
201 1418 -203 0
-201 -1419 204 0
201 1419 -204 0
-201 -1420 205 0
201 1420 -205 0
-201 -1421 206 0
201 1421 -206 0
-202 -1422 203 0
202 1422 -203 0
-202 -1423 204 0
202 1423 -204 0
-202 -1424 205 0
202 1424 -205 0
-202 -1425 206 0
202 1425 -206 0
-203 -1426 204 0
203 1426 -204 0
-203 -1427 205 0
203 1427 -205 0
-203 -1428 206 0
203 1428 -206 0
-204 -1429 205 0
204 1429 -205 0
-204 -1430 206 0
204 1430 -206 0
-205 -1431 206 0
205 1431 -206 0
-207 -256 208 0
207 256 -208 0
-207 -257 209 0
207 257 -209 0
-207 -258 210 0
207 258 -210 0
-207 -259 211 0
207 259 -211 0
-207 -260 212 0
207 260 -212 0
-207 -261 213 0
207 261 -213 0
-207 -262 214 0
207 262 -214 0
-207 -263 215 0
207 263 -215 0
-207 -264 216 0
207 264 -216 0
-207 -265 217 0
207 265 -217 0
-207 -266 218 0
207 266 -218 0
-207 -267 219 0
207 267 -219 0
-207 -268 220 0
207 268 -220 0
-207 -269 221 0
207 269 -221 0
-207 -270 222 0
207 270 -222 0
-207 -271 223 0
207 271 -223 0
-207 -272 224 0
207 272 -224 0
-207 -273 225 0
207 273 -225 0
-207 -274 226 0
207 274 -226 0
-207 -275 227 0
207 275 -227 0
-207 -276 228 0
207 276 -228 0
-207 -277 229 0
207 277 -229 0
-207 -278 230 0
207 278 -230 0
-207 -279 231 0
207 279 -231 0
-207 -280 232 0
207 280 -232 0
-207 -281 233 0
207 281 -233 0
-207 -282 234 0
207 282 -234 0
-207 -283 235 0
207 283 -235 0
-207 -284 236 0
207 284 -236 0
-207 -285 237 0
207 285 -237 0
-207 -286 238 0
207 286 -238 0
-207 -287 239 0
207 287 -239 0
-207 -288 240 0
207 288 -240 0
-207 -289 241 0
207 289 -241 0
-207 -290 242 0
207 290 -242 0
-207 -291 243 0
207 291 -243 0
-207 -292 244 0
207 292 -244 0
-207 -293 245 0
207 293 -245 0
-207 -294 246 0
207 294 -246 0
-207 -295 247 0
207 295 -247 0
-207 -296 248 0
207 296 -248 0
-207 -297 249 0
207 297 -249 0
-207 -298 250 0
207 298 -250 0
-207 -299 251 0
207 299 -251 0
-207 -300 252 0
207 300 -252 0
-207 -301 253 0
207 301 -253 0
-207 -302 254 0
207 302 -254 0
-207 -303 255 0
207 303 -255 0
-208 -304 209 0
208 304 -209 0
-208 -305 210 0
208 305 -210 0
-208 -306 211 0
208 306 -211 0
-208 -307 212 0
208 307 -212 0
-208 -308 213 0
208 308 -213 0
-208 -309 214 0
208 309 -214 0
-208 -310 215 0
208 310 -215 0
-208 -311 216 0
208 311 -216 0
-208 -312 217 0
208 312 -217 0
-208 -313 218 0
208 313 -218 0
-208 -314 219 0
208 314 -219 0
-208 -315 220 0
208 315 -220 0
-208 -316 221 0
208 316 -221 0
-208 -317 222 0
208 317 -222 0
-208 -318 223 0
208 318 -223 0
-208 -319 224 0
208 319 -224 0
-208 -320 225 0
208 320 -225 0
-208 -321 226 0
208 321 -226 0
-208 -322 227 0
208 322 -227 0
-208 -323 228 0
208 323 -228 0
-208 -324 229 0
208 324 -229 0
-208 -325 230 0
208 325 -230 0
-208 -326 231 0
208 326 -231 0
-208 -327 232 0
208 327 -232 0
-208 -328 233 0
208 328 -233 0
-208 -329 234 0
208 329 -234 0
-208 -330 235 0
208 330 -235 0
-208 -331 236 0
208 331 -236 0
-208 -332 237 0
208 332 -237 0
-208 -333 238 0
208 333 -238 0
-208 -334 239 0
208 334 -239 0
-208 -335 240 0
208 335 -240 0
-208 -336 241 0
208 336 -241 0
-208 -337 242 0
208 337 -242 0
-208 -338 243 0
208 338 -243 0
-208 -339 244 0
208 339 -244 0
-208 -340 245 0
208 340 -245 0
-208 -341 246 0
208 341 -246 0
-208 -342 247 0
208 342 -247 0
-208 -343 248 0
208 343 -248 0
-208 -344 249 0
208 344 -249 0
-208 -345 250 0
208 345 -250 0
-208 -346 251 0
208 346 -251 0
-208 -347 252 0
208 347 -252 0
-208 -348 253 0
208 348 -253 0
-208 -349 254 0
208 349 -254 0
-208 -350 255 0
208 350 -255 0
-209 -351 210 0
209 351 -210 0
-209 -352 211 0
209 352 -211 0
-209 -353 212 0
209 353 -212 0
-209 -354 213 0
209 354 -213 0
-209 -355 214 0
209 355 -214 0
-209 -356 215 0
209 356 -215 0
-209 -357 216 0
209 357 -216 0
-209 -358 217 0
209 358 -217 0
-209 -359 218 0
209 359 -218 0
-209 -360 219 0
209 360 -219 0
-209 -361 220 0
209 361 -220 0
-209 -362 221 0
209 362 -221 0
-209 -363 222 0
209 363 -222 0
-209 -364 223 0
209 364 -223 0
-209 -365 224 0
209 365 -224 0
-209 -366 225 0
209 366 -225 0
-209 -367 226 0
209 367 -226 0
-209 -368 227 0
209 368 -227 0
-209 -369 228 0
209 369 -228 0
-209 -370 229 0
209 370 -229 0
-209 -371 230 0
209 371 -230 0
-209 -372 231 0
209 372 -231 0
-209 -373 232 0
209 373 -232 0
-209 -374 233 0
209 374 -233 0
-209 -375 234 0
209 375 -234 0
-209 -376 235 0
209 376 -235 0
-209 -377 236 0
209 377 -236 0
-209 -378 237 0
209 378 -237 0
-209 -379 238 0
209 379 -238 0
-209 -380 239 0
209 380 -239 0
-209 -381 240 0
209 381 -240 0
-209 -382 241 0
209 382 -241 0
-209 -383 242 0
209 383 -242 0
-209 -384 243 0
209 384 -243 0
-209 -385 244 0
209 385 -244 0
-209 -386 245 0
209 386 -245 0
-209 -387 246 0
209 387 -246 0
-209 -388 247 0
209 388 -247 0
-209 -389 248 0
209 389 -248 0
-209 -390 249 0
209 390 -249 0
-209 -391 250 0
209 391 -250 0
-209 -392 251 0
209 392 -251 0
-209 -393 252 0
209 393 -252 0
-209 -394 253 0
209 394 -253 0
-209 -395 254 0
209 395 -254 0
-209 -396 255 0
209 396 -255 0
-210 -397 211 0
210 397 -211 0
-210 -398 212 0
210 398 -212 0
-210 -399 213 0
210 399 -213 0
-210 -400 214 0
210 400 -214 0
-210 -401 215 0
210 401 -215 0
-210 -402 216 0
210 402 -216 0
-210 -403 217 0
210 403 -217 0
-210 -404 218 0
210 404 -218 0
-210 -405 219 0
210 405 -219 0
-210 -406 220 0
210 406 -220 0
-210 -407 221 0
210 407 -221 0
-210 -408 222 0
210 408 -222 0
-210 -409 223 0
210 409 -223 0
-210 -410 224 0
210 410 -224 0
-210 -411 225 0
210 411 -225 0
-210 -412 226 0
210 412 -226 0
-210 -413 227 0
210 413 -227 0
-210 -414 228 0
210 414 -228 0
-210 -415 229 0
210 415 -229 0
-210 -416 230 0
210 416 -230 0
-210 -417 231 0
210 417 -231 0
-210 -418 232 0
210 418 -232 0
-210 -419 233 0
210 419 -233 0
-210 -420 234 0
210 420 -234 0
-210 -421 235 0
210 421 -235 0
-210 -422 236 0
210 422 -236 0
-210 -423 237 0
210 423 -237 0
-210 -424 238 0
210 424 -238 0
-210 -425 239 0
210 425 -239 0
-210 -426 240 0
210 426 -240 0
-210 -427 241 0
210 427 -241 0
-210 -428 242 0
210 428 -242 0
-210 -429 243 0
210 429 -243 0
-210 -430 244 0
210 430 -244 0
-210 -431 245 0
210 431 -245 0
-210 -432 246 0
210 432 -246 0
-210 -433 247 0
210 433 -247 0
-210 -434 248 0
210 434 -248 0
-210 -435 249 0
210 435 -249 0
-210 -436 250 0
210 436 -250 0
-210 -437 251 0
210 437 -251 0
-210 -438 252 0
210 438 -252 0
-210 -439 253 0
210 439 -253 0
-210 -440 254 0
210 440 -254 0
-210 -441 255 0
210 441 -255 0
-211 -442 212 0
211 442 -212 0
-211 -443 213 0
211 443 -213 0
-211 -444 214 0
211 444 -214 0
-211 -445 215 0
211 445 -215 0
-211 -446 216 0
211 446 -216 0
-211 -447 217 0
211 447 -217 0
-211 -448 218 0
211 448 -218 0
-211 -449 219 0
211 449 -219 0
-211 -450 220 0
211 450 -220 0
-211 -451 221 0
211 451 -221 0
-211 -452 222 0
211 452 -222 0
-211 -453 223 0
211 453 -223 0
-211 -454 224 0
211 454 -224 0
-211 -455 225 0
211 455 -225 0
-211 -456 226 0
211 456 -226 0
-211 -457 227 0
211 457 -227 0
-211 -458 228 0
211 458 -228 0
-211 -459 229 0
211 459 -229 0
-211 -460 230 0
211 460 -230 0
-211 -461 231 0
211 461 -231 0
-211 -462 232 0
211 462 -232 0
-211 -463 233 0
211 463 -233 0
-211 -464 234 0
211 464 -234 0
-211 -465 235 0
211 465 -235 0
-211 -466 236 0
211 466 -236 0
-211 -467 237 0
211 467 -237 0
-211 -468 238 0
211 468 -238 0
-211 -469 239 0
211 469 -239 0
-211 -470 240 0
211 470 -240 0
-211 -471 241 0
211 471 -241 0
-211 -472 242 0
211 472 -242 0
-211 -473 243 0
211 473 -243 0
-211 -474 244 0
211 474 -244 0
-211 -475 245 0
211 475 -245 0
-211 -476 246 0
211 476 -246 0
-211 -477 247 0
211 477 -247 0
-211 -478 248 0
211 478 -248 0
-211 -479 249 0
211 479 -249 0
-211 -480 250 0
211 480 -250 0
-211 -481 251 0
211 481 -251 0
-211 -482 252 0
211 482 -252 0
-211 -483 253 0
211 483 -253 0
-211 -484 254 0
211 484 -254 0
-211 -485 255 0
211 485 -255 0
-212 -486 213 0
212 486 -213 0
-212 -487 214 0
212 487 -214 0
-212 -488 215 0
212 488 -215 0
-212 -489 216 0
212 489 -216 0
-212 -490 217 0
212 490 -217 0
-212 -491 218 0
212 491 -218 0
-212 -492 219 0
212 492 -219 0
-212 -493 220 0
212 493 -220 0
-212 -494 221 0
212 494 -221 0
-212 -495 222 0
212 495 -222 0
-212 -496 223 0
212 496 -223 0
-212 -497 224 0
212 497 -224 0
-212 -498 225 0
212 498 -225 0
-212 -499 226 0
212 499 -226 0
-212 -500 227 0
212 500 -227 0
-212 -501 228 0
212 501 -228 0
-212 -502 229 0
212 502 -229 0
-212 -503 230 0
212 503 -230 0
-212 -504 231 0
212 504 -231 0
-212 -505 232 0
212 505 -232 0
-212 -506 233 0
212 506 -233 0
-212 -507 234 0
212 507 -234 0
-212 -508 235 0
212 508 -235 0
-212 -509 236 0
212 509 -236 0
-212 -510 237 0
212 510 -237 0
-212 -511 238 0
212 511 -238 0
-212 -512 239 0
212 512 -239 0
-212 -513 240 0
212 513 -240 0
-212 -514 241 0
212 514 -241 0
-212 -515 242 0
212 515 -242 0
-212 -516 243 0
212 516 -243 0
-212 -517 244 0
212 517 -244 0
-212 -518 245 0
212 518 -245 0
-212 -519 246 0
212 519 -246 0
-212 -520 247 0
212 520 -247 0
-212 -521 248 0
212 521 -248 0
-212 -522 249 0
212 522 -249 0
-212 -523 250 0
212 523 -250 0
-212 -524 251 0
212 524 -251 0
-212 -525 252 0
212 525 -252 0
-212 -526 253 0
212 526 -253 0
-212 -527 254 0
212 527 -254 0
-212 -528 255 0
212 528 -255 0
-213 -529 214 0
213 529 -214 0
-213 -530 215 0
213 530 -215 0
-213 -531 216 0
213 531 -216 0
-213 -532 217 0
213 532 -217 0
-213 -533 218 0
213 533 -218 0
-213 -534 219 0
213 534 -219 0
-213 -535 220 0
213 535 -220 0
-213 -536 221 0
213 536 -221 0
-213 -537 222 0
213 537 -222 0
-213 -538 223 0
213 538 -223 0
-213 -539 224 0
213 539 -224 0
-213 -540 225 0
213 540 -225 0
-213 -541 226 0
213 541 -226 0
-213 -542 227 0
213 542 -227 0
-213 -543 228 0
213 543 -228 0
-213 -544 229 0
213 544 -229 0
-213 -545 230 0
213 545 -230 0
-213 -546 231 0
213 546 -231 0
-213 -547 232 0
213 547 -232 0
-213 -548 233 0
213 548 -233 0
-213 -549 234 0
213 549 -234 0
-213 -550 235 0
213 550 -235 0
-213 -551 236 0
213 551 -236 0
-213 -552 237 0
213 552 -237 0
-213 -553 238 0
213 553 -238 0
-213 -554 239 0
213 554 -239 0
-213 -555 240 0
213 555 -240 0
-213 -556 241 0
213 556 -241 0
-213 -557 242 0
213 557 -242 0
-213 -558 243 0
213 558 -243 0
-213 -559 244 0
213 559 -244 0
-213 -560 245 0
213 560 -245 0
-213 -561 246 0
213 561 -246 0
-213 -562 247 0
213 562 -247 0
-213 -563 248 0
213 563 -248 0
-213 -564 249 0
213 564 -249 0
-213 -565 250 0
213 565 -250 0
-213 -566 251 0
213 566 -251 0
-213 -567 252 0
213 567 -252 0
-213 -568 253 0
213 568 -253 0
-213 -569 254 0
213 569 -254 0
-213 -570 255 0
213 570 -255 0
-214 -571 215 0
214 571 -215 0
-214 -572 216 0
214 572 -216 0
-214 -573 217 0
214 573 -217 0
-214 -574 218 0
214 574 -218 0
-214 -575 219 0
214 575 -219 0
-214 -576 220 0
214 576 -220 0
-214 -577 221 0
214 577 -221 0
-214 -578 222 0
214 578 -222 0
-214 -579 223 0
214 579 -223 0
-214 -580 224 0
214 580 -224 0
-214 -581 225 0
214 581 -225 0
-214 -582 226 0
214 582 -226 0
-214 -583 227 0
214 583 -227 0
-214 -584 228 0
214 584 -228 0
-214 -585 229 0
214 585 -229 0
-214 -586 230 0
214 586 -230 0
-214 -587 231 0
214 587 -231 0
-214 -588 232 0
214 588 -232 0
-214 -589 233 0
214 589 -233 0
-214 -590 234 0
214 590 -234 0
-214 -591 235 0
214 591 -235 0
-214 -592 236 0
214 592 -236 0
-214 -593 237 0
214 593 -237 0
-214 -594 238 0
214 594 -238 0
-214 -595 239 0
214 595 -239 0
-214 -596 240 0
214 596 -240 0
-214 -597 241 0
214 597 -241 0
-214 -598 242 0
214 598 -242 0
-214 -599 243 0
214 599 -243 0
-214 -600 244 0
214 600 -244 0
-214 -601 245 0
214 601 -245 0
-214 -602 246 0
214 602 -246 0
-214 -603 247 0
214 603 -247 0
-214 -604 248 0
214 604 -248 0
-214 -605 249 0
214 605 -249 0
-214 -606 250 0
214 606 -250 0
-214 -607 251 0
214 607 -251 0
-214 -608 252 0
214 608 -252 0
-214 -609 253 0
214 609 -253 0
-214 -610 254 0
214 610 -254 0
-214 -611 255 0
214 611 -255 0
-215 -612 216 0
215 612 -216 0
-215 -613 217 0
215 613 -217 0
-215 -614 218 0
215 614 -218 0
-215 -615 219 0
215 615 -219 0
-215 -616 220 0
215 616 -220 0
-215 -617 221 0
215 617 -221 0
-215 -618 222 0
215 618 -222 0
-215 -619 223 0
215 619 -223 0
-215 -620 224 0
215 620 -224 0
-215 -621 225 0
215 621 -225 0
-215 -622 226 0
215 622 -226 0
-215 -623 227 0
215 623 -227 0
-215 -624 228 0
215 624 -228 0
-215 -625 229 0
215 625 -229 0
-215 -626 230 0
215 626 -230 0
-215 -627 231 0
215 627 -231 0
-215 -628 232 0
215 628 -232 0
-215 -629 233 0
215 629 -233 0
-215 -630 234 0
215 630 -234 0
-215 -631 235 0
215 631 -235 0
-215 -632 236 0
215 632 -236 0
-215 -633 237 0
215 633 -237 0
-215 -634 238 0
215 634 -238 0
-215 -635 239 0
215 635 -239 0
-215 -636 240 0
215 636 -240 0
-215 -637 241 0
215 637 -241 0
-215 -638 242 0
215 638 -242 0
-215 -639 243 0
215 639 -243 0
-215 -640 244 0
215 640 -244 0
-215 -641 245 0
215 641 -245 0
-215 -642 246 0
215 642 -246 0
-215 -643 247 0
215 643 -247 0
-215 -644 248 0
215 644 -248 0
-215 -645 249 0
215 645 -249 0
-215 -646 250 0
215 646 -250 0
-215 -647 251 0
215 647 -251 0
-215 -648 252 0
215 648 -252 0
-215 -649 253 0
215 649 -253 0
-215 -650 254 0
215 650 -254 0
-215 -651 255 0
215 651 -255 0
-216 -652 217 0
216 652 -217 0
-216 -653 218 0
216 653 -218 0
-216 -654 219 0
216 654 -219 0
-216 -655 220 0
216 655 -220 0
-216 -656 221 0
216 656 -221 0
-216 -657 222 0
216 657 -222 0
-216 -658 223 0
216 658 -223 0
-216 -659 224 0
216 659 -224 0
-216 -660 225 0
216 660 -225 0
-216 -661 226 0
216 661 -226 0
-216 -662 227 0
216 662 -227 0
-216 -663 228 0
216 663 -228 0
-216 -664 229 0
216 664 -229 0
-216 -665 230 0
216 665 -230 0
-216 -666 231 0
216 666 -231 0
-216 -667 232 0
216 667 -232 0
-216 -668 233 0
216 668 -233 0
-216 -669 234 0
216 669 -234 0
-216 -670 235 0
216 670 -235 0
-216 -671 236 0
216 671 -236 0
-216 -672 237 0
216 672 -237 0
-216 -673 238 0
216 673 -238 0
-216 -674 239 0
216 674 -239 0
-216 -675 240 0
216 675 -240 0
-216 -676 241 0
216 676 -241 0
-216 -677 242 0
216 677 -242 0
-216 -678 243 0
216 678 -243 0
-216 -679 244 0
216 679 -244 0
-216 -680 245 0
216 680 -245 0
-216 -681 246 0
216 681 -246 0
-216 -682 247 0
216 682 -247 0
-216 -683 248 0
216 683 -248 0
-216 -684 249 0
216 684 -249 0
-216 -685 250 0
216 685 -250 0
-216 -686 251 0
216 686 -251 0
-216 -687 252 0
216 687 -252 0
-216 -688 253 0
216 688 -253 0
-216 -689 254 0
216 689 -254 0
-216 -690 255 0
216 690 -255 0
-217 -691 218 0
217 691 -218 0
-217 -692 219 0
217 692 -219 0
-217 -693 220 0
217 693 -220 0
-217 -694 221 0
217 694 -221 0
-217 -695 222 0
217 695 -222 0
-217 -696 223 0
217 696 -223 0
-217 -697 224 0
217 697 -224 0
-217 -698 225 0
217 698 -225 0
-217 -699 226 0
217 699 -226 0
-217 -700 227 0
217 700 -227 0
-217 -701 228 0
217 701 -228 0
-217 -702 229 0
217 702 -229 0
-217 -703 230 0
217 703 -230 0
-217 -704 231 0
217 704 -231 0
-217 -705 232 0
217 705 -232 0
-217 -706 233 0
217 706 -233 0
-217 -707 234 0
217 707 -234 0
-217 -708 235 0
217 708 -235 0
-217 -709 236 0
217 709 -236 0
-217 -710 237 0
217 710 -237 0
-217 -711 238 0
217 711 -238 0
-217 -712 239 0
217 712 -239 0
-217 -713 240 0
217 713 -240 0
-217 -714 241 0
217 714 -241 0
-217 -715 242 0
217 715 -242 0
-217 -716 243 0
217 716 -243 0
-217 -717 244 0
217 717 -244 0
-217 -718 245 0
217 718 -245 0
-217 -719 246 0
217 719 -246 0
-217 -720 247 0
217 720 -247 0
-217 -721 248 0
217 721 -248 0
-217 -722 249 0
217 722 -249 0
-217 -723 250 0
217 723 -250 0
-217 -724 251 0
217 724 -251 0
-217 -725 252 0
217 725 -252 0
-217 -726 253 0
217 726 -253 0
-217 -727 254 0
217 727 -254 0
-217 -728 255 0
217 728 -255 0
-218 -729 219 0
218 729 -219 0
-218 -730 220 0
218 730 -220 0
-218 -731 221 0
218 731 -221 0
-218 -732 222 0
218 732 -222 0
-218 -733 223 0
218 733 -223 0
-218 -734 224 0
218 734 -224 0
-218 -735 225 0
218 735 -225 0
-218 -736 226 0
218 736 -226 0
-218 -737 227 0
218 737 -227 0
-218 -738 228 0
218 738 -228 0
-218 -739 229 0
218 739 -229 0
-218 -740 230 0
218 740 -230 0
-218 -741 231 0
218 741 -231 0
-218 -742 232 0
218 742 -232 0
-218 -743 233 0
218 743 -233 0
-218 -744 234 0
218 744 -234 0
-218 -745 235 0
218 745 -235 0
-218 -746 236 0
218 746 -236 0
-218 -747 237 0
218 747 -237 0
-218 -748 238 0
218 748 -238 0
-218 -749 239 0
218 749 -239 0
-218 -750 240 0
218 750 -240 0
-218 -751 241 0
218 751 -241 0
-218 -752 242 0
218 752 -242 0
-218 -753 243 0
218 753 -243 0
-218 -754 244 0
218 754 -244 0
-218 -755 245 0
218 755 -245 0
-218 -756 246 0
218 756 -246 0
-218 -757 247 0
218 757 -247 0
-218 -758 248 0
218 758 -248 0
-218 -759 249 0
218 759 -249 0
-218 -760 250 0
218 760 -250 0
-218 -761 251 0
218 761 -251 0
-218 -762 252 0
218 762 -252 0
-218 -763 253 0
218 763 -253 0
-218 -764 254 0
218 764 -254 0
-218 -765 255 0
218 765 -255 0
-219 -766 220 0
219 766 -220 0
-219 -767 221 0
219 767 -221 0
-219 -768 222 0
219 768 -222 0
-219 -769 223 0
219 769 -223 0
-219 -770 224 0
219 770 -224 0
-219 -771 225 0
219 771 -225 0
-219 -772 226 0
219 772 -226 0
-219 -773 227 0
219 773 -227 0
-219 -774 228 0
219 774 -228 0
-219 -775 229 0
219 775 -229 0
-219 -776 230 0
219 776 -230 0
-219 -777 231 0
219 777 -231 0
-219 -778 232 0
219 778 -232 0
-219 -779 233 0
219 779 -233 0
-219 -780 234 0
219 780 -234 0
-219 -781 235 0
219 781 -235 0
-219 -782 236 0
219 782 -236 0
-219 -783 237 0
219 783 -237 0
-219 -784 238 0
219 784 -238 0
-219 -785 239 0
219 785 -239 0
-219 -786 240 0
219 786 -240 0
-219 -787 241 0
219 787 -241 0
-219 -788 242 0
219 788 -242 0
-219 -789 243 0
219 789 -243 0
-219 -790 244 0
219 790 -244 0
-219 -791 245 0
219 791 -245 0
-219 -792 246 0
219 792 -246 0
-219 -793 247 0
219 793 -247 0
-219 -794 248 0
219 794 -248 0
-219 -795 249 0
219 795 -249 0
-219 -796 250 0
219 796 -250 0
-219 -797 251 0
219 797 -251 0
-219 -798 252 0
219 798 -252 0
-219 -799 253 0
219 799 -253 0
-219 -800 254 0
219 800 -254 0
-219 -801 255 0
219 801 -255 0
-220 -802 221 0
220 802 -221 0
-220 -803 222 0
220 803 -222 0
-220 -804 223 0
220 804 -223 0
-220 -805 224 0
220 805 -224 0
-220 -806 225 0
220 806 -225 0
-220 -807 226 0
220 807 -226 0
-220 -808 227 0
220 808 -227 0
-220 -809 228 0
220 809 -228 0
-220 -810 229 0
220 810 -229 0
-220 -811 230 0
220 811 -230 0
-220 -812 231 0
220 812 -231 0
-220 -813 232 0
220 813 -232 0
-220 -814 233 0
220 814 -233 0
-220 -815 234 0
220 815 -234 0
-220 -816 235 0
220 816 -235 0
-220 -817 236 0
220 817 -236 0
-220 -818 237 0
220 818 -237 0
-220 -819 238 0
220 819 -238 0
-220 -820 239 0
220 820 -239 0
-220 -821 240 0
220 821 -240 0
-220 -822 241 0
220 822 -241 0
-220 -823 242 0
220 823 -242 0
-220 -824 243 0
220 824 -243 0
-220 -825 244 0
220 825 -244 0
-220 -826 245 0
220 826 -245 0
-220 -827 246 0
220 827 -246 0
-220 -828 247 0
220 828 -247 0
-220 -829 248 0
220 829 -248 0
-220 -830 249 0
220 830 -249 0
-220 -831 250 0
220 831 -250 0
-220 -832 251 0
220 832 -251 0
-220 -833 252 0
220 833 -252 0
-220 -834 253 0
220 834 -253 0
-220 -835 254 0
220 835 -254 0
-220 -836 255 0
220 836 -255 0
-221 -837 222 0
221 837 -222 0
-221 -838 223 0
221 838 -223 0
-221 -839 224 0
221 839 -224 0
-221 -840 225 0
221 840 -225 0
-221 -841 226 0
221 841 -226 0
-221 -842 227 0
221 842 -227 0
-221 -843 228 0
221 843 -228 0
-221 -844 229 0
221 844 -229 0
-221 -845 230 0
221 845 -230 0
-221 -846 231 0
221 846 -231 0
-221 -847 232 0
221 847 -232 0
-221 -848 233 0
221 848 -233 0
-221 -849 234 0
221 849 -234 0
-221 -850 235 0
221 850 -235 0
-221 -851 236 0
221 851 -236 0
-221 -852 237 0
221 852 -237 0
-221 -853 238 0
221 853 -238 0
-221 -854 239 0
221 854 -239 0
-221 -855 240 0
221 855 -240 0
-221 -856 241 0
221 856 -241 0
-221 -857 242 0
221 857 -242 0
-221 -858 243 0
221 858 -243 0
-221 -859 244 0
221 859 -244 0
-221 -860 245 0
221 860 -245 0
-221 -861 246 0
221 861 -246 0
-221 -862 247 0
221 862 -247 0
-221 -863 248 0
221 863 -248 0
-221 -864 249 0
221 864 -249 0
-221 -865 250 0
221 865 -250 0
-221 -866 251 0
221 866 -251 0
-221 -867 252 0
221 867 -252 0
-221 -868 253 0
221 868 -253 0
-221 -869 254 0
221 869 -254 0
-221 -870 255 0
221 870 -255 0
-222 -871 223 0
222 871 -223 0
-222 -872 224 0
222 872 -224 0
-222 -873 225 0
222 873 -225 0
-222 -874 226 0
222 874 -226 0
-222 -875 227 0
222 875 -227 0
-222 -876 228 0
222 876 -228 0
-222 -877 229 0
222 877 -229 0
-222 -878 230 0
222 878 -230 0
-222 -879 231 0
222 879 -231 0
-222 -880 232 0
222 880 -232 0
-222 -881 233 0
222 881 -233 0
-222 -882 234 0
222 882 -234 0
-222 -883 235 0
222 883 -235 0
-222 -884 236 0
222 884 -236 0
-222 -885 237 0
222 885 -237 0
-222 -886 238 0
222 886 -238 0
-222 -887 239 0
222 887 -239 0
-222 -888 240 0
222 888 -240 0
-222 -889 241 0
222 889 -241 0
-222 -890 242 0
222 890 -242 0
-222 -891 243 0
222 891 -243 0
-222 -892 244 0
222 892 -244 0
-222 -893 245 0
222 893 -245 0
-222 -894 246 0
222 894 -246 0
-222 -895 247 0
222 895 -247 0
-222 -896 248 0
222 896 -248 0
-222 -897 249 0
222 897 -249 0
-222 -898 250 0
222 898 -250 0
-222 -899 251 0
222 899 -251 0
-222 -900 252 0
222 900 -252 0
-222 -901 253 0
222 901 -253 0
-222 -902 254 0
222 902 -254 0
-222 -903 255 0
222 903 -255 0
-223 -904 224 0
223 904 -224 0
-223 -905 225 0
223 905 -225 0
-223 -906 226 0
223 906 -226 0
-223 -907 227 0
223 907 -227 0
-223 -908 228 0
223 908 -228 0
-223 -909 229 0
223 909 -229 0
-223 -910 230 0
223 910 -230 0
-223 -911 231 0
223 911 -231 0
-223 -912 232 0
223 912 -232 0
-223 -913 233 0
223 913 -233 0
-223 -914 234 0
223 914 -234 0
-223 -915 235 0
223 915 -235 0
-223 -916 236 0
223 916 -236 0
-223 -917 237 0
223 917 -237 0
-223 -918 238 0
223 918 -238 0
-223 -919 239 0
223 919 -239 0
-223 -920 240 0
223 920 -240 0
-223 -921 241 0
223 921 -241 0
-223 -922 242 0
223 922 -242 0
-223 -923 243 0
223 923 -243 0
-223 -924 244 0
223 924 -244 0
-223 -925 245 0
223 925 -245 0
-223 -926 246 0
223 926 -246 0
-223 -927 247 0
223 927 -247 0
-223 -928 248 0
223 928 -248 0
-223 -929 249 0
223 929 -249 0
-223 -930 250 0
223 930 -250 0
-223 -931 251 0
223 931 -251 0
-223 -932 252 0
223 932 -252 0
-223 -933 253 0
223 933 -253 0
-223 -934 254 0
223 934 -254 0
-223 -935 255 0
223 935 -255 0
-224 -936 225 0
224 936 -225 0
-224 -937 226 0
224 937 -226 0
-224 -938 227 0
224 938 -227 0
-224 -939 228 0
224 939 -228 0
-224 -940 229 0
224 940 -229 0
-224 -941 230 0
224 941 -230 0
-224 -942 231 0
224 942 -231 0
-224 -943 232 0
224 943 -232 0
-224 -944 233 0
224 944 -233 0
-224 -945 234 0
224 945 -234 0
-224 -946 235 0
224 946 -235 0
-224 -947 236 0
224 947 -236 0
-224 -948 237 0
224 948 -237 0
-224 -949 238 0
224 949 -238 0
-224 -950 239 0
224 950 -239 0
-224 -951 240 0
224 951 -240 0
-224 -952 241 0
224 952 -241 0
-224 -953 242 0
224 953 -242 0
-224 -954 243 0
224 954 -243 0
-224 -955 244 0
224 955 -244 0
-224 -956 245 0
224 956 -245 0
-224 -957 246 0
224 957 -246 0
-224 -958 247 0
224 958 -247 0
-224 -959 248 0
224 959 -248 0
-224 -960 249 0
224 960 -249 0
-224 -961 250 0
224 961 -250 0
-224 -962 251 0
224 962 -251 0
-224 -963 252 0
224 963 -252 0
-224 -964 253 0
224 964 -253 0
-224 -965 254 0
224 965 -254 0
-224 -966 255 0
224 966 -255 0
-225 -967 226 0
225 967 -226 0
-225 -968 227 0
225 968 -227 0
-225 -969 228 0
225 969 -228 0
-225 -970 229 0
225 970 -229 0
-225 -971 230 0
225 971 -230 0
-225 -972 231 0
225 972 -231 0
-225 -973 232 0
225 973 -232 0
-225 -974 233 0
225 974 -233 0
-225 -975 234 0
225 975 -234 0
-225 -976 235 0
225 976 -235 0
-225 -977 236 0
225 977 -236 0
-225 -978 237 0
225 978 -237 0
-225 -979 238 0
225 979 -238 0
-225 -980 239 0
225 980 -239 0
-225 -981 240 0
225 981 -240 0
-225 -982 241 0
225 982 -241 0
-225 -983 242 0
225 983 -242 0
-225 -984 243 0
225 984 -243 0
-225 -985 244 0
225 985 -244 0
-225 -986 245 0
225 986 -245 0
-225 -987 246 0
225 987 -246 0
-225 -988 247 0
225 988 -247 0
-225 -989 248 0
225 989 -248 0
-225 -990 249 0
225 990 -249 0
-225 -991 250 0
225 991 -250 0
-225 -992 251 0
225 992 -251 0
-225 -993 252 0
225 993 -252 0
-225 -994 253 0
225 994 -253 0
-225 -995 254 0
225 995 -254 0
-225 -996 255 0
225 996 -255 0
-226 -997 227 0
226 997 -227 0
-226 -998 228 0
226 998 -228 0
-226 -999 229 0
226 999 -229 0
-226 -1000 230 0
226 1000 -230 0
-226 -1001 231 0
226 1001 -231 0
-226 -1002 232 0
226 1002 -232 0
-226 -1003 233 0
226 1003 -233 0
-226 -1004 234 0
226 1004 -234 0
-226 -1005 235 0
226 1005 -235 0
-226 -1006 236 0
226 1006 -236 0
-226 -1007 237 0
226 1007 -237 0
-226 -1008 238 0
226 1008 -238 0
-226 -1009 239 0
226 1009 -239 0
-226 -1010 240 0
226 1010 -240 0
-226 -1011 241 0
226 1011 -241 0
-226 -1012 242 0
226 1012 -242 0
-226 -1013 243 0
226 1013 -243 0
-226 -1014 244 0
226 1014 -244 0
-226 -1015 245 0
226 1015 -245 0
-226 -1016 246 0
226 1016 -246 0
-226 -1017 247 0
226 1017 -247 0
-226 -1018 248 0
226 1018 -248 0
-226 -1019 249 0
226 1019 -249 0
-226 -1020 250 0
226 1020 -250 0
-226 -1021 251 0
226 1021 -251 0
-226 -1022 252 0
226 1022 -252 0
-226 -1023 253 0
226 1023 -253 0
-226 -1024 254 0
226 1024 -254 0
-226 -1025 255 0
226 1025 -255 0
-227 -1026 228 0
227 1026 -228 0
-227 -1027 229 0
227 1027 -229 0
-227 -1028 230 0
227 1028 -230 0
-227 -1029 231 0
227 1029 -231 0
-227 -1030 232 0
227 1030 -232 0
-227 -1031 233 0
227 1031 -233 0
-227 -1032 234 0
227 1032 -234 0
-227 -1033 235 0
227 1033 -235 0
-227 -1034 236 0
227 1034 -236 0
-227 -1035 237 0
227 1035 -237 0
-227 -1036 238 0
227 1036 -238 0
-227 -1037 239 0
227 1037 -239 0
-227 -1038 240 0
227 1038 -240 0
-227 -1039 241 0
227 1039 -241 0
-227 -1040 242 0
227 1040 -242 0
-227 -1041 243 0
227 1041 -243 0
-227 -1042 244 0
227 1042 -244 0
-227 -1043 245 0
227 1043 -245 0
-227 -1044 246 0
227 1044 -246 0
-227 -1045 247 0
227 1045 -247 0
-227 -1046 248 0
227 1046 -248 0
-227 -1047 249 0
227 1047 -249 0
-227 -1048 250 0
227 1048 -250 0
-227 -1049 251 0
227 1049 -251 0
-227 -1050 252 0
227 1050 -252 0
-227 -1051 253 0
227 1051 -253 0
-227 -1052 254 0
227 1052 -254 0
-227 -1053 255 0
227 1053 -255 0
-228 -1054 229 0
228 1054 -229 0
-228 -1055 230 0
228 1055 -230 0
-228 -1056 231 0
228 1056 -231 0
-228 -1057 232 0
228 1057 -232 0
-228 -1058 233 0
228 1058 -233 0
-228 -1059 234 0
228 1059 -234 0
-228 -1060 235 0
228 1060 -235 0
-228 -1061 236 0
228 1061 -236 0
-228 -1062 237 0
228 1062 -237 0
-228 -1063 238 0
228 1063 -238 0
-228 -1064 239 0
228 1064 -239 0
-228 -1065 240 0
228 1065 -240 0
-228 -1066 241 0
228 1066 -241 0
-228 -1067 242 0
228 1067 -242 0
-228 -1068 243 0
228 1068 -243 0
-228 -1069 244 0
228 1069 -244 0
-228 -1070 245 0
228 1070 -245 0
-228 -1071 246 0
228 1071 -246 0
-228 -1072 247 0
228 1072 -247 0
-228 -1073 248 0
228 1073 -248 0
-228 -1074 249 0
228 1074 -249 0
-228 -1075 250 0
228 1075 -250 0
-228 -1076 251 0
228 1076 -251 0
-228 -1077 252 0
228 1077 -252 0
-228 -1078 253 0
228 1078 -253 0
-228 -1079 254 0
228 1079 -254 0
-228 -1080 255 0
228 1080 -255 0
-229 -1081 230 0
229 1081 -230 0
-229 -1082 231 0
229 1082 -231 0
-229 -1083 232 0
229 1083 -232 0
-229 -1084 233 0
229 1084 -233 0
-229 -1085 234 0
229 1085 -234 0
-229 -1086 235 0
229 1086 -235 0
-229 -1087 236 0
229 1087 -236 0
-229 -1088 237 0
229 1088 -237 0
-229 -1089 238 0
229 1089 -238 0
-229 -1090 239 0
229 1090 -239 0
-229 -1091 240 0
229 1091 -240 0
-229 -1092 241 0
229 1092 -241 0
-229 -1093 242 0
229 1093 -242 0
-229 -1094 243 0
229 1094 -243 0
-229 -1095 244 0
229 1095 -244 0
-229 -1096 245 0
229 1096 -245 0
-229 -1097 246 0
229 1097 -246 0
-229 -1098 247 0
229 1098 -247 0
-229 -1099 248 0
229 1099 -248 0
-229 -1100 249 0
229 1100 -249 0
-229 -1101 250 0
229 1101 -250 0
-229 -1102 251 0
229 1102 -251 0
-229 -1103 252 0
229 1103 -252 0
-229 -1104 253 0
229 1104 -253 0
-229 -1105 254 0
229 1105 -254 0
-229 -1106 255 0
229 1106 -255 0
-230 -1107 231 0
230 1107 -231 0
-230 -1108 232 0
230 1108 -232 0
-230 -1109 233 0
230 1109 -233 0
-230 -1110 234 0
230 1110 -234 0
-230 -1111 235 0
230 1111 -235 0
-230 -1112 236 0
230 1112 -236 0
-230 -1113 237 0
230 1113 -237 0
-230 -1114 238 0
230 1114 -238 0
-230 -1115 239 0
230 1115 -239 0
-230 -1116 240 0
230 1116 -240 0
-230 -1117 241 0
230 1117 -241 0
-230 -1118 242 0
230 1118 -242 0
-230 -1119 243 0
230 1119 -243 0
-230 -1120 244 0
230 1120 -244 0
-230 -1121 245 0
230 1121 -245 0
-230 -1122 246 0
230 1122 -246 0
-230 -1123 247 0
230 1123 -247 0
-230 -1124 248 0
230 1124 -248 0
-230 -1125 249 0
230 1125 -249 0
-230 -1126 250 0
230 1126 -250 0
-230 -1127 251 0
230 1127 -251 0
-230 -1128 252 0
230 1128 -252 0
-230 -1129 253 0
230 1129 -253 0
-230 -1130 254 0
230 1130 -254 0
-230 -1131 255 0
230 1131 -255 0
-231 -1132 232 0
231 1132 -232 0
-231 -1133 233 0
231 1133 -233 0
-231 -1134 234 0
231 1134 -234 0
-231 -1135 235 0
231 1135 -235 0
-231 -1136 236 0
231 1136 -236 0
-231 -1137 237 0
231 1137 -237 0
-231 -1138 238 0
231 1138 -238 0
-231 -1139 239 0
231 1139 -239 0
-231 -1140 240 0
231 1140 -240 0
-231 -1141 241 0
231 1141 -241 0
-231 -1142 242 0
231 1142 -242 0
-231 -1143 243 0
231 1143 -243 0
-231 -1144 244 0
231 1144 -244 0
-231 -1145 245 0
231 1145 -245 0
-231 -1146 246 0
231 1146 -246 0
-231 -1147 247 0
231 1147 -247 0
-231 -1148 248 0
231 1148 -248 0
-231 -1149 249 0
231 1149 -249 0
-231 -1150 250 0
231 1150 -250 0
-231 -1151 251 0
231 1151 -251 0
-231 -1152 252 0
231 1152 -252 0
-231 -1153 253 0
231 1153 -253 0
-231 -1154 254 0
231 1154 -254 0
-231 -1155 255 0
231 1155 -255 0
-232 -1156 233 0
232 1156 -233 0
-232 -1157 234 0
232 1157 -234 0
-232 -1158 235 0
232 1158 -235 0
-232 -1159 236 0
232 1159 -236 0
-232 -1160 237 0
232 1160 -237 0
-232 -1161 238 0
232 1161 -238 0
-232 -1162 239 0
232 1162 -239 0
-232 -1163 240 0
232 1163 -240 0
-232 -1164 241 0
232 1164 -241 0
-232 -1165 242 0
232 1165 -242 0
-232 -1166 243 0
232 1166 -243 0
-232 -1167 244 0
232 1167 -244 0
-232 -1168 245 0
232 1168 -245 0
-232 -1169 246 0
232 1169 -246 0
-232 -1170 247 0
232 1170 -247 0
-232 -1171 248 0
232 1171 -248 0
-232 -1172 249 0
232 1172 -249 0
-232 -1173 250 0
232 1173 -250 0
-232 -1174 251 0
232 1174 -251 0
-232 -1175 252 0
232 1175 -252 0
-232 -1176 253 0
232 1176 -253 0
-232 -1177 254 0
232 1177 -254 0
-232 -1178 255 0
232 1178 -255 0
-233 -1179 234 0
233 1179 -234 0
-233 -1180 235 0
233 1180 -235 0
-233 -1181 236 0
233 1181 -236 0
-233 -1182 237 0
233 1182 -237 0
-233 -1183 238 0
233 1183 -238 0
-233 -1184 239 0
233 1184 -239 0
-233 -1185 240 0
233 1185 -240 0
-233 -1186 241 0
233 1186 -241 0
-233 -1187 242 0
233 1187 -242 0
-233 -1188 243 0
233 1188 -243 0
-233 -1189 244 0
233 1189 -244 0
-233 -1190 245 0
233 1190 -245 0
-233 -1191 246 0
233 1191 -246 0
-233 -1192 247 0
233 1192 -247 0
-233 -1193 248 0
233 1193 -248 0
-233 -1194 249 0
233 1194 -249 0
-233 -1195 250 0
233 1195 -250 0
-233 -1196 251 0
233 1196 -251 0
-233 -1197 252 0
233 1197 -252 0
-233 -1198 253 0
233 1198 -253 0
-233 -1199 254 0
233 1199 -254 0
-233 -1200 255 0
233 1200 -255 0
-234 -1201 235 0
234 1201 -235 0
-234 -1202 236 0
234 1202 -236 0
-234 -1203 237 0
234 1203 -237 0
-234 -1204 238 0
234 1204 -238 0
-234 -1205 239 0
234 1205 -239 0
-234 -1206 240 0
234 1206 -240 0
-234 -1207 241 0
234 1207 -241 0
-234 -1208 242 0
234 1208 -242 0
-234 -1209 243 0
234 1209 -243 0
-234 -1210 244 0
234 1210 -244 0
-234 -1211 245 0
234 1211 -245 0
-234 -1212 246 0
234 1212 -246 0
-234 -1213 247 0
234 1213 -247 0
-234 -1214 248 0
234 1214 -248 0
-234 -1215 249 0
234 1215 -249 0
-234 -1216 250 0
234 1216 -250 0
-234 -1217 251 0
234 1217 -251 0
-234 -1218 252 0
234 1218 -252 0
-234 -1219 253 0
234 1219 -253 0
-234 -1220 254 0
234 1220 -254 0
-234 -1221 255 0
234 1221 -255 0
-235 -1222 236 0
235 1222 -236 0
-235 -1223 237 0
235 1223 -237 0
-235 -1224 238 0
235 1224 -238 0
-235 -1225 239 0
235 1225 -239 0
-235 -1226 240 0
235 1226 -240 0
-235 -1227 241 0
235 1227 -241 0
-235 -1228 242 0
235 1228 -242 0
-235 -1229 243 0
235 1229 -243 0
-235 -1230 244 0
235 1230 -244 0
-235 -1231 245 0
235 1231 -245 0
-235 -1232 246 0
235 1232 -246 0
-235 -1233 247 0
235 1233 -247 0
-235 -1234 248 0
235 1234 -248 0
-235 -1235 249 0
235 1235 -249 0
-235 -1236 250 0
235 1236 -250 0
-235 -1237 251 0
235 1237 -251 0
-235 -1238 252 0
235 1238 -252 0
-235 -1239 253 0
235 1239 -253 0
-235 -1240 254 0
235 1240 -254 0
-235 -1241 255 0
235 1241 -255 0
-236 -1242 237 0
236 1242 -237 0
-236 -1243 238 0
236 1243 -238 0
-236 -1244 239 0
236 1244 -239 0
-236 -1245 240 0
236 1245 -240 0
-236 -1246 241 0
236 1246 -241 0
-236 -1247 242 0
236 1247 -242 0
-236 -1248 243 0
236 1248 -243 0
-236 -1249 244 0
236 1249 -244 0
-236 -1250 245 0
236 1250 -245 0
-236 -1251 246 0
236 1251 -246 0
-236 -1252 247 0
236 1252 -247 0
-236 -1253 248 0
236 1253 -248 0
-236 -1254 249 0
236 1254 -249 0
-236 -1255 250 0
236 1255 -250 0
-236 -1256 251 0
236 1256 -251 0
-236 -1257 252 0
236 1257 -252 0
-236 -1258 253 0
236 1258 -253 0
-236 -1259 254 0
236 1259 -254 0
-236 -1260 255 0
236 1260 -255 0
-237 -1261 238 0
237 1261 -238 0
-237 -1262 239 0
237 1262 -239 0
-237 -1263 240 0
237 1263 -240 0
-237 -1264 241 0
237 1264 -241 0
-237 -1265 242 0
237 1265 -242 0
-237 -1266 243 0
237 1266 -243 0
-237 -1267 244 0
237 1267 -244 0
-237 -1268 245 0
237 1268 -245 0
-237 -1269 246 0
237 1269 -246 0
-237 -1270 247 0
237 1270 -247 0
-237 -1271 248 0
237 1271 -248 0
-237 -1272 249 0
237 1272 -249 0
-237 -1273 250 0
237 1273 -250 0
-237 -1274 251 0
237 1274 -251 0
-237 -1275 252 0
237 1275 -252 0
-237 -1276 253 0
237 1276 -253 0
-237 -1277 254 0
237 1277 -254 0
-237 -1278 255 0
237 1278 -255 0
-238 -1279 239 0
238 1279 -239 0
-238 -1280 240 0
238 1280 -240 0
-238 -1281 241 0
238 1281 -241 0
-238 -1282 242 0
238 1282 -242 0
-238 -1283 243 0
238 1283 -243 0
-238 -1284 244 0
238 1284 -244 0
-238 -1285 245 0
238 1285 -245 0
-238 -1286 246 0
238 1286 -246 0
-238 -1287 247 0
238 1287 -247 0
-238 -1288 248 0
238 1288 -248 0
-238 -1289 249 0
238 1289 -249 0
-238 -1290 250 0
238 1290 -250 0
-238 -1291 251 0
238 1291 -251 0
-238 -1292 252 0
238 1292 -252 0
-238 -1293 253 0
238 1293 -253 0
-238 -1294 254 0
238 1294 -254 0
-238 -1295 255 0
238 1295 -255 0
-239 -1296 240 0
239 1296 -240 0
-239 -1297 241 0
239 1297 -241 0
-239 -1298 242 0
239 1298 -242 0
-239 -1299 243 0
239 1299 -243 0
-239 -1300 244 0
239 1300 -244 0
-239 -1301 245 0
239 1301 -245 0
-239 -1302 246 0
239 1302 -246 0
-239 -1303 247 0
239 1303 -247 0
-239 -1304 248 0
239 1304 -248 0
-239 -1305 249 0
239 1305 -249 0
-239 -1306 250 0
239 1306 -250 0
-239 -1307 251 0
239 1307 -251 0
-239 -1308 252 0
239 1308 -252 0
-239 -1309 253 0
239 1309 -253 0
-239 -1310 254 0
239 1310 -254 0
-239 -1311 255 0
239 1311 -255 0
-240 -1312 241 0
240 1312 -241 0
-240 -1313 242 0
240 1313 -242 0
-240 -1314 243 0
240 1314 -243 0
-240 -1315 244 0
240 1315 -244 0
-240 -1316 245 0
240 1316 -245 0
-240 -1317 246 0
240 1317 -246 0
-240 -1318 247 0
240 1318 -247 0
-240 -1319 248 0
240 1319 -248 0
-240 -1320 249 0
240 1320 -249 0
-240 -1321 250 0
240 1321 -250 0
-240 -1322 251 0
240 1322 -251 0
-240 -1323 252 0
240 1323 -252 0
-240 -1324 253 0
240 1324 -253 0
-240 -1325 254 0
240 1325 -254 0
-240 -1326 255 0
240 1326 -255 0
-241 -1327 242 0
241 1327 -242 0
-241 -1328 243 0
241 1328 -243 0
-241 -1329 244 0
241 1329 -244 0
-241 -1330 245 0
241 1330 -245 0
-241 -1331 246 0
241 1331 -246 0
-241 -1332 247 0
241 1332 -247 0
-241 -1333 248 0
241 1333 -248 0
-241 -1334 249 0
241 1334 -249 0
-241 -1335 250 0
241 1335 -250 0
-241 -1336 251 0
241 1336 -251 0
-241 -1337 252 0
241 1337 -252 0
-241 -1338 253 0
241 1338 -253 0
-241 -1339 254 0
241 1339 -254 0
-241 -1340 255 0
241 1340 -255 0
-242 -1341 243 0
242 1341 -243 0
-242 -1342 244 0
242 1342 -244 0
-242 -1343 245 0
242 1343 -245 0
-242 -1344 246 0
242 1344 -246 0
-242 -1345 247 0
242 1345 -247 0
-242 -1346 248 0
242 1346 -248 0
-242 -1347 249 0
242 1347 -249 0
-242 -1348 250 0
242 1348 -250 0
-242 -1349 251 0
242 1349 -251 0
-242 -1350 252 0
242 1350 -252 0
-242 -1351 253 0
242 1351 -253 0
-242 -1352 254 0
242 1352 -254 0
-242 -1353 255 0
242 1353 -255 0
-243 -1354 244 0
243 1354 -244 0
-243 -1355 245 0
243 1355 -245 0
-243 -1356 246 0
243 1356 -246 0
-243 -1357 247 0
243 1357 -247 0
-243 -1358 248 0
243 1358 -248 0
-243 -1359 249 0
243 1359 -249 0
-243 -1360 250 0
243 1360 -250 0
-243 -1361 251 0
243 1361 -251 0
-243 -1362 252 0
243 1362 -252 0
-243 -1363 253 0
243 1363 -253 0
-243 -1364 254 0
243 1364 -254 0
-243 -1365 255 0
243 1365 -255 0
-244 -1366 245 0
244 1366 -245 0
-244 -1367 246 0
244 1367 -246 0
-244 -1368 247 0
244 1368 -247 0
-244 -1369 248 0
244 1369 -248 0
-244 -1370 249 0
244 1370 -249 0
-244 -1371 250 0
244 1371 -250 0
-244 -1372 251 0
244 1372 -251 0
-244 -1373 252 0
244 1373 -252 0
-244 -1374 253 0
244 1374 -253 0
-244 -1375 254 0
244 1375 -254 0
-244 -1376 255 0
244 1376 -255 0
-245 -1377 246 0
245 1377 -246 0
-245 -1378 247 0
245 1378 -247 0
-245 -1379 248 0
245 1379 -248 0
-245 -1380 249 0
245 1380 -249 0
-245 -1381 250 0
245 1381 -250 0
-245 -1382 251 0
245 1382 -251 0
-245 -1383 252 0
245 1383 -252 0
-245 -1384 253 0
245 1384 -253 0
-245 -1385 254 0
245 1385 -254 0
-245 -1386 255 0
245 1386 -255 0
-246 -1387 247 0
246 1387 -247 0
-246 -1388 248 0
246 1388 -248 0
-246 -1389 249 0
246 1389 -249 0
-246 -1390 250 0
246 1390 -250 0
-246 -1391 251 0
246 1391 -251 0
-246 -1392 252 0
246 1392 -252 0
-246 -1393 253 0
246 1393 -253 0
-246 -1394 254 0
246 1394 -254 0
-246 -1395 255 0
246 1395 -255 0
-247 -1396 248 0
247 1396 -248 0
-247 -1397 249 0
247 1397 -249 0
-247 -1398 250 0
247 1398 -250 0
-247 -1399 251 0
247 1399 -251 0
-247 -1400 252 0
247 1400 -252 0
-247 -1401 253 0
247 1401 -253 0
-247 -1402 254 0
247 1402 -254 0
-247 -1403 255 0
247 1403 -255 0
-248 -1404 249 0
248 1404 -249 0
-248 -1405 250 0
248 1405 -250 0
-248 -1406 251 0
248 1406 -251 0
-248 -1407 252 0
248 1407 -252 0
-248 -1408 253 0
248 1408 -253 0
-248 -1409 254 0
248 1409 -254 0
-248 -1410 255 0
248 1410 -255 0
-249 -1411 250 0
249 1411 -250 0
-249 -1412 251 0
249 1412 -251 0
-249 -1413 252 0
249 1413 -252 0
-249 -1414 253 0
249 1414 -253 0
-249 -1415 254 0
249 1415 -254 0
-249 -1416 255 0
249 1416 -255 0
-250 -1417 251 0
250 1417 -251 0
-250 -1418 252 0
250 1418 -252 0
-250 -1419 253 0
250 1419 -253 0
-250 -1420 254 0
250 1420 -254 0
-250 -1421 255 0
250 1421 -255 0
-251 -1422 252 0
251 1422 -252 0
-251 -1423 253 0
251 1423 -253 0
-251 -1424 254 0
251 1424 -254 0
-251 -1425 255 0
251 1425 -255 0
-252 -1426 253 0
252 1426 -253 0
-252 -1427 254 0
252 1427 -254 0
-252 -1428 255 0
252 1428 -255 0
-253 -1429 254 0
253 1429 -254 0
-253 -1430 255 0
253 1430 -255 0
-254 -1431 255 0
254 1431 -255 0
-256 -304 257 0
256 304 -257 0
-256 -305 258 0
256 305 -258 0
-256 -306 259 0
256 306 -259 0
-256 -307 260 0
256 307 -260 0
-256 -308 261 0
256 308 -261 0
-256 -309 262 0
256 309 -262 0
-256 -310 263 0
256 310 -263 0
-256 -311 264 0
256 311 -264 0
-256 -312 265 0
256 312 -265 0
-256 -313 266 0
256 313 -266 0
-256 -314 267 0
256 314 -267 0
-256 -315 268 0
256 315 -268 0
-256 -316 269 0
256 316 -269 0
-256 -317 270 0
256 317 -270 0
-256 -318 271 0
256 318 -271 0
-256 -319 272 0
256 319 -272 0
-256 -320 273 0
256 320 -273 0
-256 -321 274 0
256 321 -274 0
-256 -322 275 0
256 322 -275 0
-256 -323 276 0
256 323 -276 0
-256 -324 277 0
256 324 -277 0
-256 -325 278 0
256 325 -278 0
-256 -326 279 0
256 326 -279 0
-256 -327 280 0
256 327 -280 0
-256 -328 281 0
256 328 -281 0
-256 -329 282 0
256 329 -282 0
-256 -330 283 0
256 330 -283 0
-256 -331 284 0
256 331 -284 0
-256 -332 285 0
256 332 -285 0
-256 -333 286 0
256 333 -286 0
-256 -334 287 0
256 334 -287 0
-256 -335 288 0
256 335 -288 0
-256 -336 289 0
256 336 -289 0
-256 -337 290 0
256 337 -290 0
-256 -338 291 0
256 338 -291 0
-256 -339 292 0
256 339 -292 0
-256 -340 293 0
256 340 -293 0
-256 -341 294 0
256 341 -294 0
-256 -342 295 0
256 342 -295 0
-256 -343 296 0
256 343 -296 0
-256 -344 297 0
256 344 -297 0
-256 -345 298 0
256 345 -298 0
-256 -346 299 0
256 346 -299 0
-256 -347 300 0
256 347 -300 0
-256 -348 301 0
256 348 -301 0
-256 -349 302 0
256 349 -302 0
-256 -350 303 0
256 350 -303 0
-257 -351 258 0
257 351 -258 0
-257 -352 259 0
257 352 -259 0
-257 -353 260 0
257 353 -260 0
-257 -354 261 0
257 354 -261 0
-257 -355 262 0
257 355 -262 0
-257 -356 263 0
257 356 -263 0
-257 -357 264 0
257 357 -264 0
-257 -358 265 0
257 358 -265 0
-257 -359 266 0
257 359 -266 0
-257 -360 267 0
257 360 -267 0
-257 -361 268 0
257 361 -268 0
-257 -362 269 0
257 362 -269 0
-257 -363 270 0
257 363 -270 0
-257 -364 271 0
257 364 -271 0
-257 -365 272 0
257 365 -272 0
-257 -366 273 0
257 366 -273 0
-257 -367 274 0
257 367 -274 0
-257 -368 275 0
257 368 -275 0
-257 -369 276 0
257 369 -276 0
-257 -370 277 0
257 370 -277 0
-257 -371 278 0
257 371 -278 0
-257 -372 279 0
257 372 -279 0
-257 -373 280 0
257 373 -280 0
-257 -374 281 0
257 374 -281 0
-257 -375 282 0
257 375 -282 0
-257 -376 283 0
257 376 -283 0
-257 -377 284 0
257 377 -284 0
-257 -378 285 0
257 378 -285 0
-257 -379 286 0
257 379 -286 0
-257 -380 287 0
257 380 -287 0
-257 -381 288 0
257 381 -288 0
-257 -382 289 0
257 382 -289 0
-257 -383 290 0
257 383 -290 0
-257 -384 291 0
257 384 -291 0
-257 -385 292 0
257 385 -292 0
-257 -386 293 0
257 386 -293 0
-257 -387 294 0
257 387 -294 0
-257 -388 295 0
257 388 -295 0
-257 -389 296 0
257 389 -296 0
-257 -390 297 0
257 390 -297 0
-257 -391 298 0
257 391 -298 0
-257 -392 299 0
257 392 -299 0
-257 -393 300 0
257 393 -300 0
-257 -394 301 0
257 394 -301 0
-257 -395 302 0
257 395 -302 0
-257 -396 303 0
257 396 -303 0
-258 -397 259 0
258 397 -259 0
-258 -398 260 0
258 398 -260 0
-258 -399 261 0
258 399 -261 0
-258 -400 262 0
258 400 -262 0
-258 -401 263 0
258 401 -263 0
-258 -402 264 0
258 402 -264 0
-258 -403 265 0
258 403 -265 0
-258 -404 266 0
258 404 -266 0
-258 -405 267 0
258 405 -267 0
-258 -406 268 0
258 406 -268 0
-258 -407 269 0
258 407 -269 0
-258 -408 270 0
258 408 -270 0
-258 -409 271 0
258 409 -271 0
-258 -410 272 0
258 410 -272 0
-258 -411 273 0
258 411 -273 0
-258 -412 274 0
258 412 -274 0
-258 -413 275 0
258 413 -275 0
-258 -414 276 0
258 414 -276 0
-258 -415 277 0
258 415 -277 0
-258 -416 278 0
258 416 -278 0
-258 -417 279 0
258 417 -279 0
-258 -418 280 0
258 418 -280 0
-258 -419 281 0
258 419 -281 0
-258 -420 282 0
258 420 -282 0
-258 -421 283 0
258 421 -283 0
-258 -422 284 0
258 422 -284 0
-258 -423 285 0
258 423 -285 0
-258 -424 286 0
258 424 -286 0
-258 -425 287 0
258 425 -287 0
-258 -426 288 0
258 426 -288 0
-258 -427 289 0
258 427 -289 0
-258 -428 290 0
258 428 -290 0
-258 -429 291 0
258 429 -291 0
-258 -430 292 0
258 430 -292 0
-258 -431 293 0
258 431 -293 0
-258 -432 294 0
258 432 -294 0
-258 -433 295 0
258 433 -295 0
-258 -434 296 0
258 434 -296 0
-258 -435 297 0
258 435 -297 0
-258 -436 298 0
258 436 -298 0
-258 -437 299 0
258 437 -299 0
-258 -438 300 0
258 438 -300 0
-258 -439 301 0
258 439 -301 0
-258 -440 302 0
258 440 -302 0
-258 -441 303 0
258 441 -303 0
-259 -442 260 0
259 442 -260 0
-259 -443 261 0
259 443 -261 0
-259 -444 262 0
259 444 -262 0
-259 -445 263 0
259 445 -263 0
-259 -446 264 0
259 446 -264 0
-259 -447 265 0
259 447 -265 0
-259 -448 266 0
259 448 -266 0
-259 -449 267 0
259 449 -267 0
-259 -450 268 0
259 450 -268 0
-259 -451 269 0
259 451 -269 0
-259 -452 270 0
259 452 -270 0
-259 -453 271 0
259 453 -271 0
-259 -454 272 0
259 454 -272 0
-259 -455 273 0
259 455 -273 0
-259 -456 274 0
259 456 -274 0
-259 -457 275 0
259 457 -275 0
-259 -458 276 0
259 458 -276 0
-259 -459 277 0
259 459 -277 0
-259 -460 278 0
259 460 -278 0
-259 -461 279 0
259 461 -279 0
-259 -462 280 0
259 462 -280 0
-259 -463 281 0
259 463 -281 0
-259 -464 282 0
259 464 -282 0
-259 -465 283 0
259 465 -283 0
-259 -466 284 0
259 466 -284 0
-259 -467 285 0
259 467 -285 0
-259 -468 286 0
259 468 -286 0
-259 -469 287 0
259 469 -287 0
-259 -470 288 0
259 470 -288 0
-259 -471 289 0
259 471 -289 0
-259 -472 290 0
259 472 -290 0
-259 -473 291 0
259 473 -291 0
-259 -474 292 0
259 474 -292 0
-259 -475 293 0
259 475 -293 0
-259 -476 294 0
259 476 -294 0
-259 -477 295 0
259 477 -295 0
-259 -478 296 0
259 478 -296 0
-259 -479 297 0
259 479 -297 0
-259 -480 298 0
259 480 -298 0
-259 -481 299 0
259 481 -299 0
-259 -482 300 0
259 482 -300 0
-259 -483 301 0
259 483 -301 0
-259 -484 302 0
259 484 -302 0
-259 -485 303 0
259 485 -303 0
-260 -486 261 0
260 486 -261 0
-260 -487 262 0
260 487 -262 0
-260 -488 263 0
260 488 -263 0
-260 -489 264 0
260 489 -264 0
-260 -490 265 0
260 490 -265 0
-260 -491 266 0
260 491 -266 0
-260 -492 267 0
260 492 -267 0
-260 -493 268 0
260 493 -268 0
-260 -494 269 0
260 494 -269 0
-260 -495 270 0
260 495 -270 0
-260 -496 271 0
260 496 -271 0
-260 -497 272 0
260 497 -272 0
-260 -498 273 0
260 498 -273 0
-260 -499 274 0
260 499 -274 0
-260 -500 275 0
260 500 -275 0
-260 -501 276 0
260 501 -276 0
-260 -502 277 0
260 502 -277 0
-260 -503 278 0
260 503 -278 0
-260 -504 279 0
260 504 -279 0
-260 -505 280 0
260 505 -280 0
-260 -506 281 0
260 506 -281 0
-260 -507 282 0
260 507 -282 0
-260 -508 283 0
260 508 -283 0
-260 -509 284 0
260 509 -284 0
-260 -510 285 0
260 510 -285 0
-260 -511 286 0
260 511 -286 0
-260 -512 287 0
260 512 -287 0
-260 -513 288 0
260 513 -288 0
-260 -514 289 0
260 514 -289 0
-260 -515 290 0
260 515 -290 0
-260 -516 291 0
260 516 -291 0
-260 -517 292 0
260 517 -292 0
-260 -518 293 0
260 518 -293 0
-260 -519 294 0
260 519 -294 0
-260 -520 295 0
260 520 -295 0
-260 -521 296 0
260 521 -296 0
-260 -522 297 0
260 522 -297 0
-260 -523 298 0
260 523 -298 0
-260 -524 299 0
260 524 -299 0
-260 -525 300 0
260 525 -300 0
-260 -526 301 0
260 526 -301 0
-260 -527 302 0
260 527 -302 0
-260 -528 303 0
260 528 -303 0
-261 -529 262 0
261 529 -262 0
-261 -530 263 0
261 530 -263 0
-261 -531 264 0
261 531 -264 0
-261 -532 265 0
261 532 -265 0
-261 -533 266 0
261 533 -266 0
-261 -534 267 0
261 534 -267 0
-261 -535 268 0
261 535 -268 0
-261 -536 269 0
261 536 -269 0
-261 -537 270 0
261 537 -270 0
-261 -538 271 0
261 538 -271 0
-261 -539 272 0
261 539 -272 0
-261 -540 273 0
261 540 -273 0
-261 -541 274 0
261 541 -274 0
-261 -542 275 0
261 542 -275 0
-261 -543 276 0
261 543 -276 0
-261 -544 277 0
261 544 -277 0
-261 -545 278 0
261 545 -278 0
-261 -546 279 0
261 546 -279 0
-261 -547 280 0
261 547 -280 0
-261 -548 281 0
261 548 -281 0
-261 -549 282 0
261 549 -282 0
-261 -550 283 0
261 550 -283 0
-261 -551 284 0
261 551 -284 0
-261 -552 285 0
261 552 -285 0
-261 -553 286 0
261 553 -286 0
-261 -554 287 0
261 554 -287 0
-261 -555 288 0
261 555 -288 0
-261 -556 289 0
261 556 -289 0
-261 -557 290 0
261 557 -290 0
-261 -558 291 0
261 558 -291 0
-261 -559 292 0
261 559 -292 0
-261 -560 293 0
261 560 -293 0
-261 -561 294 0
261 561 -294 0
-261 -562 295 0
261 562 -295 0
-261 -563 296 0
261 563 -296 0
-261 -564 297 0
261 564 -297 0
-261 -565 298 0
261 565 -298 0
-261 -566 299 0
261 566 -299 0
-261 -567 300 0
261 567 -300 0
-261 -568 301 0
261 568 -301 0
-261 -569 302 0
261 569 -302 0
-261 -570 303 0
261 570 -303 0
-262 -571 263 0
262 571 -263 0
-262 -572 264 0
262 572 -264 0
-262 -573 265 0
262 573 -265 0
-262 -574 266 0
262 574 -266 0
-262 -575 267 0
262 575 -267 0
-262 -576 268 0
262 576 -268 0
-262 -577 269 0
262 577 -269 0
-262 -578 270 0
262 578 -270 0
-262 -579 271 0
262 579 -271 0
-262 -580 272 0
262 580 -272 0
-262 -581 273 0
262 581 -273 0
-262 -582 274 0
262 582 -274 0
-262 -583 275 0
262 583 -275 0
-262 -584 276 0
262 584 -276 0
-262 -585 277 0
262 585 -277 0
-262 -586 278 0
262 586 -278 0
-262 -587 279 0
262 587 -279 0
-262 -588 280 0
262 588 -280 0
-262 -589 281 0
262 589 -281 0
-262 -590 282 0
262 590 -282 0
-262 -591 283 0
262 591 -283 0
-262 -592 284 0
262 592 -284 0
-262 -593 285 0
262 593 -285 0
-262 -594 286 0
262 594 -286 0
-262 -595 287 0
262 595 -287 0
-262 -596 288 0
262 596 -288 0
-262 -597 289 0
262 597 -289 0
-262 -598 290 0
262 598 -290 0
-262 -599 291 0
262 599 -291 0
-262 -600 292 0
262 600 -292 0
-262 -601 293 0
262 601 -293 0
-262 -602 294 0
262 602 -294 0
-262 -603 295 0
262 603 -295 0
-262 -604 296 0
262 604 -296 0
-262 -605 297 0
262 605 -297 0
-262 -606 298 0
262 606 -298 0
-262 -607 299 0
262 607 -299 0
-262 -608 300 0
262 608 -300 0
-262 -609 301 0
262 609 -301 0
-262 -610 302 0
262 610 -302 0
-262 -611 303 0
262 611 -303 0
-263 -612 264 0
263 612 -264 0
-263 -613 265 0
263 613 -265 0
-263 -614 266 0
263 614 -266 0
-263 -615 267 0
263 615 -267 0
-263 -616 268 0
263 616 -268 0
-263 -617 269 0
263 617 -269 0
-263 -618 270 0
263 618 -270 0
-263 -619 271 0
263 619 -271 0
-263 -620 272 0
263 620 -272 0
-263 -621 273 0
263 621 -273 0
-263 -622 274 0
263 622 -274 0
-263 -623 275 0
263 623 -275 0
-263 -624 276 0
263 624 -276 0
-263 -625 277 0
263 625 -277 0
-263 -626 278 0
263 626 -278 0
-263 -627 279 0
263 627 -279 0
-263 -628 280 0
263 628 -280 0
-263 -629 281 0
263 629 -281 0
-263 -630 282 0
263 630 -282 0
-263 -631 283 0
263 631 -283 0
-263 -632 284 0
263 632 -284 0
-263 -633 285 0
263 633 -285 0
-263 -634 286 0
263 634 -286 0
-263 -635 287 0
263 635 -287 0
-263 -636 288 0
263 636 -288 0
-263 -637 289 0
263 637 -289 0
-263 -638 290 0
263 638 -290 0
-263 -639 291 0
263 639 -291 0
-263 -640 292 0
263 640 -292 0
-263 -641 293 0
263 641 -293 0
-263 -642 294 0
263 642 -294 0
-263 -643 295 0
263 643 -295 0
-263 -644 296 0
263 644 -296 0
-263 -645 297 0
263 645 -297 0
-263 -646 298 0
263 646 -298 0
-263 -647 299 0
263 647 -299 0
-263 -648 300 0
263 648 -300 0
-263 -649 301 0
263 649 -301 0
-263 -650 302 0
263 650 -302 0
-263 -651 303 0
263 651 -303 0
-264 -652 265 0
264 652 -265 0
-264 -653 266 0
264 653 -266 0
-264 -654 267 0
264 654 -267 0
-264 -655 268 0
264 655 -268 0
-264 -656 269 0
264 656 -269 0
-264 -657 270 0
264 657 -270 0
-264 -658 271 0
264 658 -271 0
-264 -659 272 0
264 659 -272 0
-264 -660 273 0
264 660 -273 0
-264 -661 274 0
264 661 -274 0
-264 -662 275 0
264 662 -275 0
-264 -663 276 0
264 663 -276 0
-264 -664 277 0
264 664 -277 0
-264 -665 278 0
264 665 -278 0
-264 -666 279 0
264 666 -279 0
-264 -667 280 0
264 667 -280 0
-264 -668 281 0
264 668 -281 0
-264 -669 282 0
264 669 -282 0
-264 -670 283 0
264 670 -283 0
-264 -671 284 0
264 671 -284 0
-264 -672 285 0
264 672 -285 0
-264 -673 286 0
264 673 -286 0
-264 -674 287 0
264 674 -287 0
-264 -675 288 0
264 675 -288 0
-264 -676 289 0
264 676 -289 0
-264 -677 290 0
264 677 -290 0
-264 -678 291 0
264 678 -291 0
-264 -679 292 0
264 679 -292 0
-264 -680 293 0
264 680 -293 0
-264 -681 294 0
264 681 -294 0
-264 -682 295 0
264 682 -295 0
-264 -683 296 0
264 683 -296 0
-264 -684 297 0
264 684 -297 0
-264 -685 298 0
264 685 -298 0
-264 -686 299 0
264 686 -299 0
-264 -687 300 0
264 687 -300 0
-264 -688 301 0
264 688 -301 0
-264 -689 302 0
264 689 -302 0
-264 -690 303 0
264 690 -303 0
-265 -691 266 0
265 691 -266 0
-265 -692 267 0
265 692 -267 0
-265 -693 268 0
265 693 -268 0
-265 -694 269 0
265 694 -269 0
-265 -695 270 0
265 695 -270 0
-265 -696 271 0
265 696 -271 0
-265 -697 272 0
265 697 -272 0
-265 -698 273 0
265 698 -273 0
-265 -699 274 0
265 699 -274 0
-265 -700 275 0
265 700 -275 0
-265 -701 276 0
265 701 -276 0
-265 -702 277 0
265 702 -277 0
-265 -703 278 0
265 703 -278 0
-265 -704 279 0
265 704 -279 0
-265 -705 280 0
265 705 -280 0
-265 -706 281 0
265 706 -281 0
-265 -707 282 0
265 707 -282 0
-265 -708 283 0
265 708 -283 0
-265 -709 284 0
265 709 -284 0
-265 -710 285 0
265 710 -285 0
-265 -711 286 0
265 711 -286 0
-265 -712 287 0
265 712 -287 0
-265 -713 288 0
265 713 -288 0
-265 -714 289 0
265 714 -289 0
-265 -715 290 0
265 715 -290 0
-265 -716 291 0
265 716 -291 0
-265 -717 292 0
265 717 -292 0
-265 -718 293 0
265 718 -293 0
-265 -719 294 0
265 719 -294 0
-265 -720 295 0
265 720 -295 0
-265 -721 296 0
265 721 -296 0
-265 -722 297 0
265 722 -297 0
-265 -723 298 0
265 723 -298 0
-265 -724 299 0
265 724 -299 0
-265 -725 300 0
265 725 -300 0
-265 -726 301 0
265 726 -301 0
-265 -727 302 0
265 727 -302 0
-265 -728 303 0
265 728 -303 0
-266 -729 267 0
266 729 -267 0
-266 -730 268 0
266 730 -268 0
-266 -731 269 0
266 731 -269 0
-266 -732 270 0
266 732 -270 0
-266 -733 271 0
266 733 -271 0
-266 -734 272 0
266 734 -272 0
-266 -735 273 0
266 735 -273 0
-266 -736 274 0
266 736 -274 0
-266 -737 275 0
266 737 -275 0
-266 -738 276 0
266 738 -276 0
-266 -739 277 0
266 739 -277 0
-266 -740 278 0
266 740 -278 0
-266 -741 279 0
266 741 -279 0
-266 -742 280 0
266 742 -280 0
-266 -743 281 0
266 743 -281 0
-266 -744 282 0
266 744 -282 0
-266 -745 283 0
266 745 -283 0
-266 -746 284 0
266 746 -284 0
-266 -747 285 0
266 747 -285 0
-266 -748 286 0
266 748 -286 0
-266 -749 287 0
266 749 -287 0
-266 -750 288 0
266 750 -288 0
-266 -751 289 0
266 751 -289 0
-266 -752 290 0
266 752 -290 0
-266 -753 291 0
266 753 -291 0
-266 -754 292 0
266 754 -292 0
-266 -755 293 0
266 755 -293 0
-266 -756 294 0
266 756 -294 0
-266 -757 295 0
266 757 -295 0
-266 -758 296 0
266 758 -296 0
-266 -759 297 0
266 759 -297 0
-266 -760 298 0
266 760 -298 0
-266 -761 299 0
266 761 -299 0
-266 -762 300 0
266 762 -300 0
-266 -763 301 0
266 763 -301 0
-266 -764 302 0
266 764 -302 0
-266 -765 303 0
266 765 -303 0
-267 -766 268 0
267 766 -268 0
-267 -767 269 0
267 767 -269 0
-267 -768 270 0
267 768 -270 0
-267 -769 271 0
267 769 -271 0
-267 -770 272 0
267 770 -272 0
-267 -771 273 0
267 771 -273 0
-267 -772 274 0
267 772 -274 0
-267 -773 275 0
267 773 -275 0
-267 -774 276 0
267 774 -276 0
-267 -775 277 0
267 775 -277 0
-267 -776 278 0
267 776 -278 0
-267 -777 279 0
267 777 -279 0
-267 -778 280 0
267 778 -280 0
-267 -779 281 0
267 779 -281 0
-267 -780 282 0
267 780 -282 0
-267 -781 283 0
267 781 -283 0
-267 -782 284 0
267 782 -284 0
-267 -783 285 0
267 783 -285 0
-267 -784 286 0
267 784 -286 0
-267 -785 287 0
267 785 -287 0
-267 -786 288 0
267 786 -288 0
-267 -787 289 0
267 787 -289 0
-267 -788 290 0
267 788 -290 0
-267 -789 291 0
267 789 -291 0
-267 -790 292 0
267 790 -292 0
-267 -791 293 0
267 791 -293 0
-267 -792 294 0
267 792 -294 0
-267 -793 295 0
267 793 -295 0
-267 -794 296 0
267 794 -296 0
-267 -795 297 0
267 795 -297 0
-267 -796 298 0
267 796 -298 0
-267 -797 299 0
267 797 -299 0
-267 -798 300 0
267 798 -300 0
-267 -799 301 0
267 799 -301 0
-267 -800 302 0
267 800 -302 0
-267 -801 303 0
267 801 -303 0
-268 -802 269 0
268 802 -269 0
-268 -803 270 0
268 803 -270 0
-268 -804 271 0
268 804 -271 0
-268 -805 272 0
268 805 -272 0
-268 -806 273 0
268 806 -273 0
-268 -807 274 0
268 807 -274 0
-268 -808 275 0
268 808 -275 0
-268 -809 276 0
268 809 -276 0
-268 -810 277 0
268 810 -277 0
-268 -811 278 0
268 811 -278 0
-268 -812 279 0
268 812 -279 0
-268 -813 280 0
268 813 -280 0
-268 -814 281 0
268 814 -281 0
-268 -815 282 0
268 815 -282 0
-268 -816 283 0
268 816 -283 0
-268 -817 284 0
268 817 -284 0
-268 -818 285 0
268 818 -285 0
-268 -819 286 0
268 819 -286 0
-268 -820 287 0
268 820 -287 0
-268 -821 288 0
268 821 -288 0
-268 -822 289 0
268 822 -289 0
-268 -823 290 0
268 823 -290 0
-268 -824 291 0
268 824 -291 0
-268 -825 292 0
268 825 -292 0
-268 -826 293 0
268 826 -293 0
-268 -827 294 0
268 827 -294 0
-268 -828 295 0
268 828 -295 0
-268 -829 296 0
268 829 -296 0
-268 -830 297 0
268 830 -297 0
-268 -831 298 0
268 831 -298 0
-268 -832 299 0
268 832 -299 0
-268 -833 300 0
268 833 -300 0
-268 -834 301 0
268 834 -301 0
-268 -835 302 0
268 835 -302 0
-268 -836 303 0
268 836 -303 0
-269 -837 270 0
269 837 -270 0
-269 -838 271 0
269 838 -271 0
-269 -839 272 0
269 839 -272 0
-269 -840 273 0
269 840 -273 0
-269 -841 274 0
269 841 -274 0
-269 -842 275 0
269 842 -275 0
-269 -843 276 0
269 843 -276 0
-269 -844 277 0
269 844 -277 0
-269 -845 278 0
269 845 -278 0
-269 -846 279 0
269 846 -279 0
-269 -847 280 0
269 847 -280 0
-269 -848 281 0
269 848 -281 0
-269 -849 282 0
269 849 -282 0
-269 -850 283 0
269 850 -283 0
-269 -851 284 0
269 851 -284 0
-269 -852 285 0
269 852 -285 0
-269 -853 286 0
269 853 -286 0
-269 -854 287 0
269 854 -287 0
-269 -855 288 0
269 855 -288 0
-269 -856 289 0
269 856 -289 0
-269 -857 290 0
269 857 -290 0
-269 -858 291 0
269 858 -291 0
-269 -859 292 0
269 859 -292 0
-269 -860 293 0
269 860 -293 0
-269 -861 294 0
269 861 -294 0
-269 -862 295 0
269 862 -295 0
-269 -863 296 0
269 863 -296 0
-269 -864 297 0
269 864 -297 0
-269 -865 298 0
269 865 -298 0
-269 -866 299 0
269 866 -299 0
-269 -867 300 0
269 867 -300 0
-269 -868 301 0
269 868 -301 0
-269 -869 302 0
269 869 -302 0
-269 -870 303 0
269 870 -303 0
-270 -871 271 0
270 871 -271 0
-270 -872 272 0
270 872 -272 0
-270 -873 273 0
270 873 -273 0
-270 -874 274 0
270 874 -274 0
-270 -875 275 0
270 875 -275 0
-270 -876 276 0
270 876 -276 0
-270 -877 277 0
270 877 -277 0
-270 -878 278 0
270 878 -278 0
-270 -879 279 0
270 879 -279 0
-270 -880 280 0
270 880 -280 0
-270 -881 281 0
270 881 -281 0
-270 -882 282 0
270 882 -282 0
-270 -883 283 0
270 883 -283 0
-270 -884 284 0
270 884 -284 0
-270 -885 285 0
270 885 -285 0
-270 -886 286 0
270 886 -286 0
-270 -887 287 0
270 887 -287 0
-270 -888 288 0
270 888 -288 0
-270 -889 289 0
270 889 -289 0
-270 -890 290 0
270 890 -290 0
-270 -891 291 0
270 891 -291 0
-270 -892 292 0
270 892 -292 0
-270 -893 293 0
270 893 -293 0
-270 -894 294 0
270 894 -294 0
-270 -895 295 0
270 895 -295 0
-270 -896 296 0
270 896 -296 0
-270 -897 297 0
270 897 -297 0
-270 -898 298 0
270 898 -298 0
-270 -899 299 0
270 899 -299 0
-270 -900 300 0
270 900 -300 0
-270 -901 301 0
270 901 -301 0
-270 -902 302 0
270 902 -302 0
-270 -903 303 0
270 903 -303 0
-271 -904 272 0
271 904 -272 0
-271 -905 273 0
271 905 -273 0
-271 -906 274 0
271 906 -274 0
-271 -907 275 0
271 907 -275 0
-271 -908 276 0
271 908 -276 0
-271 -909 277 0
271 909 -277 0
-271 -910 278 0
271 910 -278 0
-271 -911 279 0
271 911 -279 0
-271 -912 280 0
271 912 -280 0
-271 -913 281 0
271 913 -281 0
-271 -914 282 0
271 914 -282 0
-271 -915 283 0
271 915 -283 0
-271 -916 284 0
271 916 -284 0
-271 -917 285 0
271 917 -285 0
-271 -918 286 0
271 918 -286 0
-271 -919 287 0
271 919 -287 0
-271 -920 288 0
271 920 -288 0
-271 -921 289 0
271 921 -289 0
-271 -922 290 0
271 922 -290 0
-271 -923 291 0
271 923 -291 0
-271 -924 292 0
271 924 -292 0
-271 -925 293 0
271 925 -293 0
-271 -926 294 0
271 926 -294 0
-271 -927 295 0
271 927 -295 0
-271 -928 296 0
271 928 -296 0
-271 -929 297 0
271 929 -297 0
-271 -930 298 0
271 930 -298 0
-271 -931 299 0
271 931 -299 0
-271 -932 300 0
271 932 -300 0
-271 -933 301 0
271 933 -301 0
-271 -934 302 0
271 934 -302 0
-271 -935 303 0
271 935 -303 0
-272 -936 273 0
272 936 -273 0
-272 -937 274 0
272 937 -274 0
-272 -938 275 0
272 938 -275 0
-272 -939 276 0
272 939 -276 0
-272 -940 277 0
272 940 -277 0
-272 -941 278 0
272 941 -278 0
-272 -942 279 0
272 942 -279 0
-272 -943 280 0
272 943 -280 0
-272 -944 281 0
272 944 -281 0
-272 -945 282 0
272 945 -282 0
-272 -946 283 0
272 946 -283 0
-272 -947 284 0
272 947 -284 0
-272 -948 285 0
272 948 -285 0
-272 -949 286 0
272 949 -286 0
-272 -950 287 0
272 950 -287 0
-272 -951 288 0
272 951 -288 0
-272 -952 289 0
272 952 -289 0
-272 -953 290 0
272 953 -290 0
-272 -954 291 0
272 954 -291 0
-272 -955 292 0
272 955 -292 0
-272 -956 293 0
272 956 -293 0
-272 -957 294 0
272 957 -294 0
-272 -958 295 0
272 958 -295 0
-272 -959 296 0
272 959 -296 0
-272 -960 297 0
272 960 -297 0
-272 -961 298 0
272 961 -298 0
-272 -962 299 0
272 962 -299 0
-272 -963 300 0
272 963 -300 0
-272 -964 301 0
272 964 -301 0
-272 -965 302 0
272 965 -302 0
-272 -966 303 0
272 966 -303 0
-273 -967 274 0
273 967 -274 0
-273 -968 275 0
273 968 -275 0
-273 -969 276 0
273 969 -276 0
-273 -970 277 0
273 970 -277 0
-273 -971 278 0
273 971 -278 0
-273 -972 279 0
273 972 -279 0
-273 -973 280 0
273 973 -280 0
-273 -974 281 0
273 974 -281 0
-273 -975 282 0
273 975 -282 0
-273 -976 283 0
273 976 -283 0
-273 -977 284 0
273 977 -284 0
-273 -978 285 0
273 978 -285 0
-273 -979 286 0
273 979 -286 0
-273 -980 287 0
273 980 -287 0
-273 -981 288 0
273 981 -288 0
-273 -982 289 0
273 982 -289 0
-273 -983 290 0
273 983 -290 0
-273 -984 291 0
273 984 -291 0
-273 -985 292 0
273 985 -292 0
-273 -986 293 0
273 986 -293 0
-273 -987 294 0
273 987 -294 0
-273 -988 295 0
273 988 -295 0
-273 -989 296 0
273 989 -296 0
-273 -990 297 0
273 990 -297 0
-273 -991 298 0
273 991 -298 0
-273 -992 299 0
273 992 -299 0
-273 -993 300 0
273 993 -300 0
-273 -994 301 0
273 994 -301 0
-273 -995 302 0
273 995 -302 0
-273 -996 303 0
273 996 -303 0
-274 -997 275 0
274 997 -275 0
-274 -998 276 0
274 998 -276 0
-274 -999 277 0
274 999 -277 0
-274 -1000 278 0
274 1000 -278 0
-274 -1001 279 0
274 1001 -279 0
-274 -1002 280 0
274 1002 -280 0
-274 -1003 281 0
274 1003 -281 0
-274 -1004 282 0
274 1004 -282 0
-274 -1005 283 0
274 1005 -283 0
-274 -1006 284 0
274 1006 -284 0
-274 -1007 285 0
274 1007 -285 0
-274 -1008 286 0
274 1008 -286 0
-274 -1009 287 0
274 1009 -287 0
-274 -1010 288 0
274 1010 -288 0
-274 -1011 289 0
274 1011 -289 0
-274 -1012 290 0
274 1012 -290 0
-274 -1013 291 0
274 1013 -291 0
-274 -1014 292 0
274 1014 -292 0
-274 -1015 293 0
274 1015 -293 0
-274 -1016 294 0
274 1016 -294 0
-274 -1017 295 0
274 1017 -295 0
-274 -1018 296 0
274 1018 -296 0
-274 -1019 297 0
274 1019 -297 0
-274 -1020 298 0
274 1020 -298 0
-274 -1021 299 0
274 1021 -299 0
-274 -1022 300 0
274 1022 -300 0
-274 -1023 301 0
274 1023 -301 0
-274 -1024 302 0
274 1024 -302 0
-274 -1025 303 0
274 1025 -303 0
-275 -1026 276 0
275 1026 -276 0
-275 -1027 277 0
275 1027 -277 0
-275 -1028 278 0
275 1028 -278 0
-275 -1029 279 0
275 1029 -279 0
-275 -1030 280 0
275 1030 -280 0
-275 -1031 281 0
275 1031 -281 0
-275 -1032 282 0
275 1032 -282 0
-275 -1033 283 0
275 1033 -283 0
-275 -1034 284 0
275 1034 -284 0
-275 -1035 285 0
275 1035 -285 0
-275 -1036 286 0
275 1036 -286 0
-275 -1037 287 0
275 1037 -287 0
-275 -1038 288 0
275 1038 -288 0
-275 -1039 289 0
275 1039 -289 0
-275 -1040 290 0
275 1040 -290 0
-275 -1041 291 0
275 1041 -291 0
-275 -1042 292 0
275 1042 -292 0
-275 -1043 293 0
275 1043 -293 0
-275 -1044 294 0
275 1044 -294 0
-275 -1045 295 0
275 1045 -295 0
-275 -1046 296 0
275 1046 -296 0
-275 -1047 297 0
275 1047 -297 0
-275 -1048 298 0
275 1048 -298 0
-275 -1049 299 0
275 1049 -299 0
-275 -1050 300 0
275 1050 -300 0
-275 -1051 301 0
275 1051 -301 0
-275 -1052 302 0
275 1052 -302 0
-275 -1053 303 0
275 1053 -303 0
-276 -1054 277 0
276 1054 -277 0
-276 -1055 278 0
276 1055 -278 0
-276 -1056 279 0
276 1056 -279 0
-276 -1057 280 0
276 1057 -280 0
-276 -1058 281 0
276 1058 -281 0
-276 -1059 282 0
276 1059 -282 0
-276 -1060 283 0
276 1060 -283 0
-276 -1061 284 0
276 1061 -284 0
-276 -1062 285 0
276 1062 -285 0
-276 -1063 286 0
276 1063 -286 0
-276 -1064 287 0
276 1064 -287 0
-276 -1065 288 0
276 1065 -288 0
-276 -1066 289 0
276 1066 -289 0
-276 -1067 290 0
276 1067 -290 0
-276 -1068 291 0
276 1068 -291 0
-276 -1069 292 0
276 1069 -292 0
-276 -1070 293 0
276 1070 -293 0
-276 -1071 294 0
276 1071 -294 0
-276 -1072 295 0
276 1072 -295 0
-276 -1073 296 0
276 1073 -296 0
-276 -1074 297 0
276 1074 -297 0
-276 -1075 298 0
276 1075 -298 0
-276 -1076 299 0
276 1076 -299 0
-276 -1077 300 0
276 1077 -300 0
-276 -1078 301 0
276 1078 -301 0
-276 -1079 302 0
276 1079 -302 0
-276 -1080 303 0
276 1080 -303 0
-277 -1081 278 0
277 1081 -278 0
-277 -1082 279 0
277 1082 -279 0
-277 -1083 280 0
277 1083 -280 0
-277 -1084 281 0
277 1084 -281 0
-277 -1085 282 0
277 1085 -282 0
-277 -1086 283 0
277 1086 -283 0
-277 -1087 284 0
277 1087 -284 0
-277 -1088 285 0
277 1088 -285 0
-277 -1089 286 0
277 1089 -286 0
-277 -1090 287 0
277 1090 -287 0
-277 -1091 288 0
277 1091 -288 0
-277 -1092 289 0
277 1092 -289 0
-277 -1093 290 0
277 1093 -290 0
-277 -1094 291 0
277 1094 -291 0
-277 -1095 292 0
277 1095 -292 0
-277 -1096 293 0
277 1096 -293 0
-277 -1097 294 0
277 1097 -294 0
-277 -1098 295 0
277 1098 -295 0
-277 -1099 296 0
277 1099 -296 0
-277 -1100 297 0
277 1100 -297 0
-277 -1101 298 0
277 1101 -298 0
-277 -1102 299 0
277 1102 -299 0
-277 -1103 300 0
277 1103 -300 0
-277 -1104 301 0
277 1104 -301 0
-277 -1105 302 0
277 1105 -302 0
-277 -1106 303 0
277 1106 -303 0
-278 -1107 279 0
278 1107 -279 0
-278 -1108 280 0
278 1108 -280 0
-278 -1109 281 0
278 1109 -281 0
-278 -1110 282 0
278 1110 -282 0
-278 -1111 283 0
278 1111 -283 0
-278 -1112 284 0
278 1112 -284 0
-278 -1113 285 0
278 1113 -285 0
-278 -1114 286 0
278 1114 -286 0
-278 -1115 287 0
278 1115 -287 0
-278 -1116 288 0
278 1116 -288 0
-278 -1117 289 0
278 1117 -289 0
-278 -1118 290 0
278 1118 -290 0
-278 -1119 291 0
278 1119 -291 0
-278 -1120 292 0
278 1120 -292 0
-278 -1121 293 0
278 1121 -293 0
-278 -1122 294 0
278 1122 -294 0
-278 -1123 295 0
278 1123 -295 0
-278 -1124 296 0
278 1124 -296 0
-278 -1125 297 0
278 1125 -297 0
-278 -1126 298 0
278 1126 -298 0
-278 -1127 299 0
278 1127 -299 0
-278 -1128 300 0
278 1128 -300 0
-278 -1129 301 0
278 1129 -301 0
-278 -1130 302 0
278 1130 -302 0
-278 -1131 303 0
278 1131 -303 0
-279 -1132 280 0
279 1132 -280 0
-279 -1133 281 0
279 1133 -281 0
-279 -1134 282 0
279 1134 -282 0
-279 -1135 283 0
279 1135 -283 0
-279 -1136 284 0
279 1136 -284 0
-279 -1137 285 0
279 1137 -285 0
-279 -1138 286 0
279 1138 -286 0
-279 -1139 287 0
279 1139 -287 0
-279 -1140 288 0
279 1140 -288 0
-279 -1141 289 0
279 1141 -289 0
-279 -1142 290 0
279 1142 -290 0
-279 -1143 291 0
279 1143 -291 0
-279 -1144 292 0
279 1144 -292 0
-279 -1145 293 0
279 1145 -293 0
-279 -1146 294 0
279 1146 -294 0
-279 -1147 295 0
279 1147 -295 0
-279 -1148 296 0
279 1148 -296 0
-279 -1149 297 0
279 1149 -297 0
-279 -1150 298 0
279 1150 -298 0
-279 -1151 299 0
279 1151 -299 0
-279 -1152 300 0
279 1152 -300 0
-279 -1153 301 0
279 1153 -301 0
-279 -1154 302 0
279 1154 -302 0
-279 -1155 303 0
279 1155 -303 0
-280 -1156 281 0
280 1156 -281 0
-280 -1157 282 0
280 1157 -282 0
-280 -1158 283 0
280 1158 -283 0
-280 -1159 284 0
280 1159 -284 0
-280 -1160 285 0
280 1160 -285 0
-280 -1161 286 0
280 1161 -286 0
-280 -1162 287 0
280 1162 -287 0
-280 -1163 288 0
280 1163 -288 0
-280 -1164 289 0
280 1164 -289 0
-280 -1165 290 0
280 1165 -290 0
-280 -1166 291 0
280 1166 -291 0
-280 -1167 292 0
280 1167 -292 0
-280 -1168 293 0
280 1168 -293 0
-280 -1169 294 0
280 1169 -294 0
-280 -1170 295 0
280 1170 -295 0
-280 -1171 296 0
280 1171 -296 0
-280 -1172 297 0
280 1172 -297 0
-280 -1173 298 0
280 1173 -298 0
-280 -1174 299 0
280 1174 -299 0
-280 -1175 300 0
280 1175 -300 0
-280 -1176 301 0
280 1176 -301 0
-280 -1177 302 0
280 1177 -302 0
-280 -1178 303 0
280 1178 -303 0
-281 -1179 282 0
281 1179 -282 0
-281 -1180 283 0
281 1180 -283 0
-281 -1181 284 0
281 1181 -284 0
-281 -1182 285 0
281 1182 -285 0
-281 -1183 286 0
281 1183 -286 0
-281 -1184 287 0
281 1184 -287 0
-281 -1185 288 0
281 1185 -288 0
-281 -1186 289 0
281 1186 -289 0
-281 -1187 290 0
281 1187 -290 0
-281 -1188 291 0
281 1188 -291 0
-281 -1189 292 0
281 1189 -292 0
-281 -1190 293 0
281 1190 -293 0
-281 -1191 294 0
281 1191 -294 0
-281 -1192 295 0
281 1192 -295 0
-281 -1193 296 0
281 1193 -296 0
-281 -1194 297 0
281 1194 -297 0
-281 -1195 298 0
281 1195 -298 0
-281 -1196 299 0
281 1196 -299 0
-281 -1197 300 0
281 1197 -300 0
-281 -1198 301 0
281 1198 -301 0
-281 -1199 302 0
281 1199 -302 0
-281 -1200 303 0
281 1200 -303 0
-282 -1201 283 0
282 1201 -283 0
-282 -1202 284 0
282 1202 -284 0
-282 -1203 285 0
282 1203 -285 0
-282 -1204 286 0
282 1204 -286 0
-282 -1205 287 0
282 1205 -287 0
-282 -1206 288 0
282 1206 -288 0
-282 -1207 289 0
282 1207 -289 0
-282 -1208 290 0
282 1208 -290 0
-282 -1209 291 0
282 1209 -291 0
-282 -1210 292 0
282 1210 -292 0
-282 -1211 293 0
282 1211 -293 0
-282 -1212 294 0
282 1212 -294 0
-282 -1213 295 0
282 1213 -295 0
-282 -1214 296 0
282 1214 -296 0
-282 -1215 297 0
282 1215 -297 0
-282 -1216 298 0
282 1216 -298 0
-282 -1217 299 0
282 1217 -299 0
-282 -1218 300 0
282 1218 -300 0
-282 -1219 301 0
282 1219 -301 0
-282 -1220 302 0
282 1220 -302 0
-282 -1221 303 0
282 1221 -303 0
-283 -1222 284 0
283 1222 -284 0
-283 -1223 285 0
283 1223 -285 0
-283 -1224 286 0
283 1224 -286 0
-283 -1225 287 0
283 1225 -287 0
-283 -1226 288 0
283 1226 -288 0
-283 -1227 289 0
283 1227 -289 0
-283 -1228 290 0
283 1228 -290 0
-283 -1229 291 0
283 1229 -291 0
-283 -1230 292 0
283 1230 -292 0
-283 -1231 293 0
283 1231 -293 0
-283 -1232 294 0
283 1232 -294 0
-283 -1233 295 0
283 1233 -295 0
-283 -1234 296 0
283 1234 -296 0
-283 -1235 297 0
283 1235 -297 0
-283 -1236 298 0
283 1236 -298 0
-283 -1237 299 0
283 1237 -299 0
-283 -1238 300 0
283 1238 -300 0
-283 -1239 301 0
283 1239 -301 0
-283 -1240 302 0
283 1240 -302 0
-283 -1241 303 0
283 1241 -303 0
-284 -1242 285 0
284 1242 -285 0
-284 -1243 286 0
284 1243 -286 0
-284 -1244 287 0
284 1244 -287 0
-284 -1245 288 0
284 1245 -288 0
-284 -1246 289 0
284 1246 -289 0
-284 -1247 290 0
284 1247 -290 0
-284 -1248 291 0
284 1248 -291 0
-284 -1249 292 0
284 1249 -292 0
-284 -1250 293 0
284 1250 -293 0
-284 -1251 294 0
284 1251 -294 0
-284 -1252 295 0
284 1252 -295 0
-284 -1253 296 0
284 1253 -296 0
-284 -1254 297 0
284 1254 -297 0
-284 -1255 298 0
284 1255 -298 0
-284 -1256 299 0
284 1256 -299 0
-284 -1257 300 0
284 1257 -300 0
-284 -1258 301 0
284 1258 -301 0
-284 -1259 302 0
284 1259 -302 0
-284 -1260 303 0
284 1260 -303 0
-285 -1261 286 0
285 1261 -286 0
-285 -1262 287 0
285 1262 -287 0
-285 -1263 288 0
285 1263 -288 0
-285 -1264 289 0
285 1264 -289 0
-285 -1265 290 0
285 1265 -290 0
-285 -1266 291 0
285 1266 -291 0
-285 -1267 292 0
285 1267 -292 0
-285 -1268 293 0
285 1268 -293 0
-285 -1269 294 0
285 1269 -294 0
-285 -1270 295 0
285 1270 -295 0
-285 -1271 296 0
285 1271 -296 0
-285 -1272 297 0
285 1272 -297 0
-285 -1273 298 0
285 1273 -298 0
-285 -1274 299 0
285 1274 -299 0
-285 -1275 300 0
285 1275 -300 0
-285 -1276 301 0
285 1276 -301 0
-285 -1277 302 0
285 1277 -302 0
-285 -1278 303 0
285 1278 -303 0
-286 -1279 287 0
286 1279 -287 0
-286 -1280 288 0
286 1280 -288 0
-286 -1281 289 0
286 1281 -289 0
-286 -1282 290 0
286 1282 -290 0
-286 -1283 291 0
286 1283 -291 0
-286 -1284 292 0
286 1284 -292 0
-286 -1285 293 0
286 1285 -293 0
-286 -1286 294 0
286 1286 -294 0
-286 -1287 295 0
286 1287 -295 0
-286 -1288 296 0
286 1288 -296 0
-286 -1289 297 0
286 1289 -297 0
-286 -1290 298 0
286 1290 -298 0
-286 -1291 299 0
286 1291 -299 0
-286 -1292 300 0
286 1292 -300 0
-286 -1293 301 0
286 1293 -301 0
-286 -1294 302 0
286 1294 -302 0
-286 -1295 303 0
286 1295 -303 0
-287 -1296 288 0
287 1296 -288 0
-287 -1297 289 0
287 1297 -289 0
-287 -1298 290 0
287 1298 -290 0
-287 -1299 291 0
287 1299 -291 0
-287 -1300 292 0
287 1300 -292 0
-287 -1301 293 0
287 1301 -293 0
-287 -1302 294 0
287 1302 -294 0
-287 -1303 295 0
287 1303 -295 0
-287 -1304 296 0
287 1304 -296 0
-287 -1305 297 0
287 1305 -297 0
-287 -1306 298 0
287 1306 -298 0
-287 -1307 299 0
287 1307 -299 0
-287 -1308 300 0
287 1308 -300 0
-287 -1309 301 0
287 1309 -301 0
-287 -1310 302 0
287 1310 -302 0
-287 -1311 303 0
287 1311 -303 0
-288 -1312 289 0
288 1312 -289 0
-288 -1313 290 0
288 1313 -290 0
-288 -1314 291 0
288 1314 -291 0
-288 -1315 292 0
288 1315 -292 0
-288 -1316 293 0
288 1316 -293 0
-288 -1317 294 0
288 1317 -294 0
-288 -1318 295 0
288 1318 -295 0
-288 -1319 296 0
288 1319 -296 0
-288 -1320 297 0
288 1320 -297 0
-288 -1321 298 0
288 1321 -298 0
-288 -1322 299 0
288 1322 -299 0
-288 -1323 300 0
288 1323 -300 0
-288 -1324 301 0
288 1324 -301 0
-288 -1325 302 0
288 1325 -302 0
-288 -1326 303 0
288 1326 -303 0
-289 -1327 290 0
289 1327 -290 0
-289 -1328 291 0
289 1328 -291 0
-289 -1329 292 0
289 1329 -292 0
-289 -1330 293 0
289 1330 -293 0
-289 -1331 294 0
289 1331 -294 0
-289 -1332 295 0
289 1332 -295 0
-289 -1333 296 0
289 1333 -296 0
-289 -1334 297 0
289 1334 -297 0
-289 -1335 298 0
289 1335 -298 0
-289 -1336 299 0
289 1336 -299 0
-289 -1337 300 0
289 1337 -300 0
-289 -1338 301 0
289 1338 -301 0
-289 -1339 302 0
289 1339 -302 0
-289 -1340 303 0
289 1340 -303 0
-290 -1341 291 0
290 1341 -291 0
-290 -1342 292 0
290 1342 -292 0
-290 -1343 293 0
290 1343 -293 0
-290 -1344 294 0
290 1344 -294 0
-290 -1345 295 0
290 1345 -295 0
-290 -1346 296 0
290 1346 -296 0
-290 -1347 297 0
290 1347 -297 0
-290 -1348 298 0
290 1348 -298 0
-290 -1349 299 0
290 1349 -299 0
-290 -1350 300 0
290 1350 -300 0
-290 -1351 301 0
290 1351 -301 0
-290 -1352 302 0
290 1352 -302 0
-290 -1353 303 0
290 1353 -303 0
-291 -1354 292 0
291 1354 -292 0
-291 -1355 293 0
291 1355 -293 0
-291 -1356 294 0
291 1356 -294 0
-291 -1357 295 0
291 1357 -295 0
-291 -1358 296 0
291 1358 -296 0
-291 -1359 297 0
291 1359 -297 0
-291 -1360 298 0
291 1360 -298 0
-291 -1361 299 0
291 1361 -299 0
-291 -1362 300 0
291 1362 -300 0
-291 -1363 301 0
291 1363 -301 0
-291 -1364 302 0
291 1364 -302 0
-291 -1365 303 0
291 1365 -303 0
-292 -1366 293 0
292 1366 -293 0
-292 -1367 294 0
292 1367 -294 0
-292 -1368 295 0
292 1368 -295 0
-292 -1369 296 0
292 1369 -296 0
-292 -1370 297 0
292 1370 -297 0
-292 -1371 298 0
292 1371 -298 0
-292 -1372 299 0
292 1372 -299 0
-292 -1373 300 0
292 1373 -300 0
-292 -1374 301 0
292 1374 -301 0
-292 -1375 302 0
292 1375 -302 0
-292 -1376 303 0
292 1376 -303 0
-293 -1377 294 0
293 1377 -294 0
-293 -1378 295 0
293 1378 -295 0
-293 -1379 296 0
293 1379 -296 0
-293 -1380 297 0
293 1380 -297 0
-293 -1381 298 0
293 1381 -298 0
-293 -1382 299 0
293 1382 -299 0
-293 -1383 300 0
293 1383 -300 0
-293 -1384 301 0
293 1384 -301 0
-293 -1385 302 0
293 1385 -302 0
-293 -1386 303 0
293 1386 -303 0
-294 -1387 295 0
294 1387 -295 0
-294 -1388 296 0
294 1388 -296 0
-294 -1389 297 0
294 1389 -297 0
-294 -1390 298 0
294 1390 -298 0
-294 -1391 299 0
294 1391 -299 0
-294 -1392 300 0
294 1392 -300 0
-294 -1393 301 0
294 1393 -301 0
-294 -1394 302 0
294 1394 -302 0
-294 -1395 303 0
294 1395 -303 0
-295 -1396 296 0
295 1396 -296 0
-295 -1397 297 0
295 1397 -297 0
-295 -1398 298 0
295 1398 -298 0
-295 -1399 299 0
295 1399 -299 0
-295 -1400 300 0
295 1400 -300 0
-295 -1401 301 0
295 1401 -301 0
-295 -1402 302 0
295 1402 -302 0
-295 -1403 303 0
295 1403 -303 0
-296 -1404 297 0
296 1404 -297 0
-296 -1405 298 0
296 1405 -298 0
-296 -1406 299 0
296 1406 -299 0
-296 -1407 300 0
296 1407 -300 0
-296 -1408 301 0
296 1408 -301 0
-296 -1409 302 0
296 1409 -302 0
-296 -1410 303 0
296 1410 -303 0
-297 -1411 298 0
297 1411 -298 0
-297 -1412 299 0
297 1412 -299 0
-297 -1413 300 0
297 1413 -300 0
-297 -1414 301 0
297 1414 -301 0
-297 -1415 302 0
297 1415 -302 0
-297 -1416 303 0
297 1416 -303 0
-298 -1417 299 0
298 1417 -299 0
-298 -1418 300 0
298 1418 -300 0
-298 -1419 301 0
298 1419 -301 0
-298 -1420 302 0
298 1420 -302 0
-298 -1421 303 0
298 1421 -303 0
-299 -1422 300 0
299 1422 -300 0
-299 -1423 301 0
299 1423 -301 0
-299 -1424 302 0
299 1424 -302 0
-299 -1425 303 0
299 1425 -303 0
-300 -1426 301 0
300 1426 -301 0
-300 -1427 302 0
300 1427 -302 0
-300 -1428 303 0
300 1428 -303 0
-301 -1429 302 0
301 1429 -302 0
-301 -1430 303 0
301 1430 -303 0
-302 -1431 303 0
302 1431 -303 0
-304 -351 305 0
304 351 -305 0
-304 -352 306 0
304 352 -306 0
-304 -353 307 0
304 353 -307 0
-304 -354 308 0
304 354 -308 0
-304 -355 309 0
304 355 -309 0
-304 -356 310 0
304 356 -310 0
-304 -357 311 0
304 357 -311 0
-304 -358 312 0
304 358 -312 0
-304 -359 313 0
304 359 -313 0
-304 -360 314 0
304 360 -314 0
-304 -361 315 0
304 361 -315 0
-304 -362 316 0
304 362 -316 0
-304 -363 317 0
304 363 -317 0
-304 -364 318 0
304 364 -318 0
-304 -365 319 0
304 365 -319 0
-304 -366 320 0
304 366 -320 0
-304 -367 321 0
304 367 -321 0
-304 -368 322 0
304 368 -322 0
-304 -369 323 0
304 369 -323 0
-304 -370 324 0
304 370 -324 0
-304 -371 325 0
304 371 -325 0
-304 -372 326 0
304 372 -326 0
-304 -373 327 0
304 373 -327 0
-304 -374 328 0
304 374 -328 0
-304 -375 329 0
304 375 -329 0
-304 -376 330 0
304 376 -330 0
-304 -377 331 0
304 377 -331 0
-304 -378 332 0
304 378 -332 0
-304 -379 333 0
304 379 -333 0
-304 -380 334 0
304 380 -334 0
-304 -381 335 0
304 381 -335 0
-304 -382 336 0
304 382 -336 0
-304 -383 337 0
304 383 -337 0
-304 -384 338 0
304 384 -338 0
-304 -385 339 0
304 385 -339 0
-304 -386 340 0
304 386 -340 0
-304 -387 341 0
304 387 -341 0
-304 -388 342 0
304 388 -342 0
-304 -389 343 0
304 389 -343 0
-304 -390 344 0
304 390 -344 0
-304 -391 345 0
304 391 -345 0
-304 -392 346 0
304 392 -346 0
-304 -393 347 0
304 393 -347 0
-304 -394 348 0
304 394 -348 0
-304 -395 349 0
304 395 -349 0
-304 -396 350 0
304 396 -350 0
-305 -397 306 0
305 397 -306 0
-305 -398 307 0
305 398 -307 0
-305 -399 308 0
305 399 -308 0
-305 -400 309 0
305 400 -309 0
-305 -401 310 0
305 401 -310 0
-305 -402 311 0
305 402 -311 0
-305 -403 312 0
305 403 -312 0
-305 -404 313 0
305 404 -313 0
-305 -405 314 0
305 405 -314 0
-305 -406 315 0
305 406 -315 0
-305 -407 316 0
305 407 -316 0
-305 -408 317 0
305 408 -317 0
-305 -409 318 0
305 409 -318 0
-305 -410 319 0
305 410 -319 0
-305 -411 320 0
305 411 -320 0
-305 -412 321 0
305 412 -321 0
-305 -413 322 0
305 413 -322 0
-305 -414 323 0
305 414 -323 0
-305 -415 324 0
305 415 -324 0
-305 -416 325 0
305 416 -325 0
-305 -417 326 0
305 417 -326 0
-305 -418 327 0
305 418 -327 0
-305 -419 328 0
305 419 -328 0
-305 -420 329 0
305 420 -329 0
-305 -421 330 0
305 421 -330 0
-305 -422 331 0
305 422 -331 0
-305 -423 332 0
305 423 -332 0
-305 -424 333 0
305 424 -333 0
-305 -425 334 0
305 425 -334 0
-305 -426 335 0
305 426 -335 0
-305 -427 336 0
305 427 -336 0
-305 -428 337 0
305 428 -337 0
-305 -429 338 0
305 429 -338 0
-305 -430 339 0
305 430 -339 0
-305 -431 340 0
305 431 -340 0
-305 -432 341 0
305 432 -341 0
-305 -433 342 0
305 433 -342 0
-305 -434 343 0
305 434 -343 0
-305 -435 344 0
305 435 -344 0
-305 -436 345 0
305 436 -345 0
-305 -437 346 0
305 437 -346 0
-305 -438 347 0
305 438 -347 0
-305 -439 348 0
305 439 -348 0
-305 -440 349 0
305 440 -349 0
-305 -441 350 0
305 441 -350 0
-306 -442 307 0
306 442 -307 0
-306 -443 308 0
306 443 -308 0
-306 -444 309 0
306 444 -309 0
-306 -445 310 0
306 445 -310 0
-306 -446 311 0
306 446 -311 0
-306 -447 312 0
306 447 -312 0
-306 -448 313 0
306 448 -313 0
-306 -449 314 0
306 449 -314 0
-306 -450 315 0
306 450 -315 0
-306 -451 316 0
306 451 -316 0
-306 -452 317 0
306 452 -317 0
-306 -453 318 0
306 453 -318 0
-306 -454 319 0
306 454 -319 0
-306 -455 320 0
306 455 -320 0
-306 -456 321 0
306 456 -321 0
-306 -457 322 0
306 457 -322 0
-306 -458 323 0
306 458 -323 0
-306 -459 324 0
306 459 -324 0
-306 -460 325 0
306 460 -325 0
-306 -461 326 0
306 461 -326 0
-306 -462 327 0
306 462 -327 0
-306 -463 328 0
306 463 -328 0
-306 -464 329 0
306 464 -329 0
-306 -465 330 0
306 465 -330 0
-306 -466 331 0
306 466 -331 0
-306 -467 332 0
306 467 -332 0
-306 -468 333 0
306 468 -333 0
-306 -469 334 0
306 469 -334 0
-306 -470 335 0
306 470 -335 0
-306 -471 336 0
306 471 -336 0
-306 -472 337 0
306 472 -337 0
-306 -473 338 0
306 473 -338 0
-306 -474 339 0
306 474 -339 0
-306 -475 340 0
306 475 -340 0
-306 -476 341 0
306 476 -341 0
-306 -477 342 0
306 477 -342 0
-306 -478 343 0
306 478 -343 0
-306 -479 344 0
306 479 -344 0
-306 -480 345 0
306 480 -345 0
-306 -481 346 0
306 481 -346 0
-306 -482 347 0
306 482 -347 0
-306 -483 348 0
306 483 -348 0
-306 -484 349 0
306 484 -349 0
-306 -485 350 0
306 485 -350 0
-307 -486 308 0
307 486 -308 0
-307 -487 309 0
307 487 -309 0
-307 -488 310 0
307 488 -310 0
-307 -489 311 0
307 489 -311 0
-307 -490 312 0
307 490 -312 0
-307 -491 313 0
307 491 -313 0
-307 -492 314 0
307 492 -314 0
-307 -493 315 0
307 493 -315 0
-307 -494 316 0
307 494 -316 0
-307 -495 317 0
307 495 -317 0
-307 -496 318 0
307 496 -318 0
-307 -497 319 0
307 497 -319 0
-307 -498 320 0
307 498 -320 0
-307 -499 321 0
307 499 -321 0
-307 -500 322 0
307 500 -322 0
-307 -501 323 0
307 501 -323 0
-307 -502 324 0
307 502 -324 0
-307 -503 325 0
307 503 -325 0
-307 -504 326 0
307 504 -326 0
-307 -505 327 0
307 505 -327 0
-307 -506 328 0
307 506 -328 0
-307 -507 329 0
307 507 -329 0
-307 -508 330 0
307 508 -330 0
-307 -509 331 0
307 509 -331 0
-307 -510 332 0
307 510 -332 0
-307 -511 333 0
307 511 -333 0
-307 -512 334 0
307 512 -334 0
-307 -513 335 0
307 513 -335 0
-307 -514 336 0
307 514 -336 0
-307 -515 337 0
307 515 -337 0
-307 -516 338 0
307 516 -338 0
-307 -517 339 0
307 517 -339 0
-307 -518 340 0
307 518 -340 0
-307 -519 341 0
307 519 -341 0
-307 -520 342 0
307 520 -342 0
-307 -521 343 0
307 521 -343 0
-307 -522 344 0
307 522 -344 0
-307 -523 345 0
307 523 -345 0
-307 -524 346 0
307 524 -346 0
-307 -525 347 0
307 525 -347 0
-307 -526 348 0
307 526 -348 0
-307 -527 349 0
307 527 -349 0
-307 -528 350 0
307 528 -350 0
-308 -529 309 0
308 529 -309 0
-308 -530 310 0
308 530 -310 0
-308 -531 311 0
308 531 -311 0
-308 -532 312 0
308 532 -312 0
-308 -533 313 0
308 533 -313 0
-308 -534 314 0
308 534 -314 0
-308 -535 315 0
308 535 -315 0
-308 -536 316 0
308 536 -316 0
-308 -537 317 0
308 537 -317 0
-308 -538 318 0
308 538 -318 0
-308 -539 319 0
308 539 -319 0
-308 -540 320 0
308 540 -320 0
-308 -541 321 0
308 541 -321 0
-308 -542 322 0
308 542 -322 0
-308 -543 323 0
308 543 -323 0
-308 -544 324 0
308 544 -324 0
-308 -545 325 0
308 545 -325 0
-308 -546 326 0
308 546 -326 0
-308 -547 327 0
308 547 -327 0
-308 -548 328 0
308 548 -328 0
-308 -549 329 0
308 549 -329 0
-308 -550 330 0
308 550 -330 0
-308 -551 331 0
308 551 -331 0
-308 -552 332 0
308 552 -332 0
-308 -553 333 0
308 553 -333 0
-308 -554 334 0
308 554 -334 0
-308 -555 335 0
308 555 -335 0
-308 -556 336 0
308 556 -336 0
-308 -557 337 0
308 557 -337 0
-308 -558 338 0
308 558 -338 0
-308 -559 339 0
308 559 -339 0
-308 -560 340 0
308 560 -340 0
-308 -561 341 0
308 561 -341 0
-308 -562 342 0
308 562 -342 0
-308 -563 343 0
308 563 -343 0
-308 -564 344 0
308 564 -344 0
-308 -565 345 0
308 565 -345 0
-308 -566 346 0
308 566 -346 0
-308 -567 347 0
308 567 -347 0
-308 -568 348 0
308 568 -348 0
-308 -569 349 0
308 569 -349 0
-308 -570 350 0
308 570 -350 0
-309 -571 310 0
309 571 -310 0
-309 -572 311 0
309 572 -311 0
-309 -573 312 0
309 573 -312 0
-309 -574 313 0
309 574 -313 0
-309 -575 314 0
309 575 -314 0
-309 -576 315 0
309 576 -315 0
-309 -577 316 0
309 577 -316 0
-309 -578 317 0
309 578 -317 0
-309 -579 318 0
309 579 -318 0
-309 -580 319 0
309 580 -319 0
-309 -581 320 0
309 581 -320 0
-309 -582 321 0
309 582 -321 0
-309 -583 322 0
309 583 -322 0
-309 -584 323 0
309 584 -323 0
-309 -585 324 0
309 585 -324 0
-309 -586 325 0
309 586 -325 0
-309 -587 326 0
309 587 -326 0
-309 -588 327 0
309 588 -327 0
-309 -589 328 0
309 589 -328 0
-309 -590 329 0
309 590 -329 0
-309 -591 330 0
309 591 -330 0
-309 -592 331 0
309 592 -331 0
-309 -593 332 0
309 593 -332 0
-309 -594 333 0
309 594 -333 0
-309 -595 334 0
309 595 -334 0
-309 -596 335 0
309 596 -335 0
-309 -597 336 0
309 597 -336 0
-309 -598 337 0
309 598 -337 0
-309 -599 338 0
309 599 -338 0
-309 -600 339 0
309 600 -339 0
-309 -601 340 0
309 601 -340 0
-309 -602 341 0
309 602 -341 0
-309 -603 342 0
309 603 -342 0
-309 -604 343 0
309 604 -343 0
-309 -605 344 0
309 605 -344 0
-309 -606 345 0
309 606 -345 0
-309 -607 346 0
309 607 -346 0
-309 -608 347 0
309 608 -347 0
-309 -609 348 0
309 609 -348 0
-309 -610 349 0
309 610 -349 0
-309 -611 350 0
309 611 -350 0
-310 -612 311 0
310 612 -311 0
-310 -613 312 0
310 613 -312 0
-310 -614 313 0
310 614 -313 0
-310 -615 314 0
310 615 -314 0
-310 -616 315 0
310 616 -315 0
-310 -617 316 0
310 617 -316 0
-310 -618 317 0
310 618 -317 0
-310 -619 318 0
310 619 -318 0
-310 -620 319 0
310 620 -319 0
-310 -621 320 0
310 621 -320 0
-310 -622 321 0
310 622 -321 0
-310 -623 322 0
310 623 -322 0
-310 -624 323 0
310 624 -323 0
-310 -625 324 0
310 625 -324 0
-310 -626 325 0
310 626 -325 0
-310 -627 326 0
310 627 -326 0
-310 -628 327 0
310 628 -327 0
-310 -629 328 0
310 629 -328 0
-310 -630 329 0
310 630 -329 0
-310 -631 330 0
310 631 -330 0
-310 -632 331 0
310 632 -331 0
-310 -633 332 0
310 633 -332 0
-310 -634 333 0
310 634 -333 0
-310 -635 334 0
310 635 -334 0
-310 -636 335 0
310 636 -335 0
-310 -637 336 0
310 637 -336 0
-310 -638 337 0
310 638 -337 0
-310 -639 338 0
310 639 -338 0
-310 -640 339 0
310 640 -339 0
-310 -641 340 0
310 641 -340 0
-310 -642 341 0
310 642 -341 0
-310 -643 342 0
310 643 -342 0
-310 -644 343 0
310 644 -343 0
-310 -645 344 0
310 645 -344 0
-310 -646 345 0
310 646 -345 0
-310 -647 346 0
310 647 -346 0
-310 -648 347 0
310 648 -347 0
-310 -649 348 0
310 649 -348 0
-310 -650 349 0
310 650 -349 0
-310 -651 350 0
310 651 -350 0
-311 -652 312 0
311 652 -312 0
-311 -653 313 0
311 653 -313 0
-311 -654 314 0
311 654 -314 0
-311 -655 315 0
311 655 -315 0
-311 -656 316 0
311 656 -316 0
-311 -657 317 0
311 657 -317 0
-311 -658 318 0
311 658 -318 0
-311 -659 319 0
311 659 -319 0
-311 -660 320 0
311 660 -320 0
-311 -661 321 0
311 661 -321 0
-311 -662 322 0
311 662 -322 0
-311 -663 323 0
311 663 -323 0
-311 -664 324 0
311 664 -324 0
-311 -665 325 0
311 665 -325 0
-311 -666 326 0
311 666 -326 0
-311 -667 327 0
311 667 -327 0
-311 -668 328 0
311 668 -328 0
-311 -669 329 0
311 669 -329 0
-311 -670 330 0
311 670 -330 0
-311 -671 331 0
311 671 -331 0
-311 -672 332 0
311 672 -332 0
-311 -673 333 0
311 673 -333 0
-311 -674 334 0
311 674 -334 0
-311 -675 335 0
311 675 -335 0
-311 -676 336 0
311 676 -336 0
-311 -677 337 0
311 677 -337 0
-311 -678 338 0
311 678 -338 0
-311 -679 339 0
311 679 -339 0
-311 -680 340 0
311 680 -340 0
-311 -681 341 0
311 681 -341 0
-311 -682 342 0
311 682 -342 0
-311 -683 343 0
311 683 -343 0
-311 -684 344 0
311 684 -344 0
-311 -685 345 0
311 685 -345 0
-311 -686 346 0
311 686 -346 0
-311 -687 347 0
311 687 -347 0
-311 -688 348 0
311 688 -348 0
-311 -689 349 0
311 689 -349 0
-311 -690 350 0
311 690 -350 0
-312 -691 313 0
312 691 -313 0
-312 -692 314 0
312 692 -314 0
-312 -693 315 0
312 693 -315 0
-312 -694 316 0
312 694 -316 0
-312 -695 317 0
312 695 -317 0
-312 -696 318 0
312 696 -318 0
-312 -697 319 0
312 697 -319 0
-312 -698 320 0
312 698 -320 0
-312 -699 321 0
312 699 -321 0
-312 -700 322 0
312 700 -322 0
-312 -701 323 0
312 701 -323 0
-312 -702 324 0
312 702 -324 0
-312 -703 325 0
312 703 -325 0
-312 -704 326 0
312 704 -326 0
-312 -705 327 0
312 705 -327 0
-312 -706 328 0
312 706 -328 0
-312 -707 329 0
312 707 -329 0
-312 -708 330 0
312 708 -330 0
-312 -709 331 0
312 709 -331 0
-312 -710 332 0
312 710 -332 0
-312 -711 333 0
312 711 -333 0
-312 -712 334 0
312 712 -334 0
-312 -713 335 0
312 713 -335 0
-312 -714 336 0
312 714 -336 0
-312 -715 337 0
312 715 -337 0
-312 -716 338 0
312 716 -338 0
-312 -717 339 0
312 717 -339 0
-312 -718 340 0
312 718 -340 0
-312 -719 341 0
312 719 -341 0
-312 -720 342 0
312 720 -342 0
-312 -721 343 0
312 721 -343 0
-312 -722 344 0
312 722 -344 0
-312 -723 345 0
312 723 -345 0
-312 -724 346 0
312 724 -346 0
-312 -725 347 0
312 725 -347 0
-312 -726 348 0
312 726 -348 0
-312 -727 349 0
312 727 -349 0
-312 -728 350 0
312 728 -350 0
-313 -729 314 0
313 729 -314 0
-313 -730 315 0
313 730 -315 0
-313 -731 316 0
313 731 -316 0
-313 -732 317 0
313 732 -317 0
-313 -733 318 0
313 733 -318 0
-313 -734 319 0
313 734 -319 0
-313 -735 320 0
313 735 -320 0
-313 -736 321 0
313 736 -321 0
-313 -737 322 0
313 737 -322 0
-313 -738 323 0
313 738 -323 0
-313 -739 324 0
313 739 -324 0
-313 -740 325 0
313 740 -325 0
-313 -741 326 0
313 741 -326 0
-313 -742 327 0
313 742 -327 0
-313 -743 328 0
313 743 -328 0
-313 -744 329 0
313 744 -329 0
-313 -745 330 0
313 745 -330 0
-313 -746 331 0
313 746 -331 0
-313 -747 332 0
313 747 -332 0
-313 -748 333 0
313 748 -333 0
-313 -749 334 0
313 749 -334 0
-313 -750 335 0
313 750 -335 0
-313 -751 336 0
313 751 -336 0
-313 -752 337 0
313 752 -337 0
-313 -753 338 0
313 753 -338 0
-313 -754 339 0
313 754 -339 0
-313 -755 340 0
313 755 -340 0
-313 -756 341 0
313 756 -341 0
-313 -757 342 0
313 757 -342 0
-313 -758 343 0
313 758 -343 0
-313 -759 344 0
313 759 -344 0
-313 -760 345 0
313 760 -345 0
-313 -761 346 0
313 761 -346 0
-313 -762 347 0
313 762 -347 0
-313 -763 348 0
313 763 -348 0
-313 -764 349 0
313 764 -349 0
-313 -765 350 0
313 765 -350 0
-314 -766 315 0
314 766 -315 0
-314 -767 316 0
314 767 -316 0
-314 -768 317 0
314 768 -317 0
-314 -769 318 0
314 769 -318 0
-314 -770 319 0
314 770 -319 0
-314 -771 320 0
314 771 -320 0
-314 -772 321 0
314 772 -321 0
-314 -773 322 0
314 773 -322 0
-314 -774 323 0
314 774 -323 0
-314 -775 324 0
314 775 -324 0
-314 -776 325 0
314 776 -325 0
-314 -777 326 0
314 777 -326 0
-314 -778 327 0
314 778 -327 0
-314 -779 328 0
314 779 -328 0
-314 -780 329 0
314 780 -329 0
-314 -781 330 0
314 781 -330 0
-314 -782 331 0
314 782 -331 0
-314 -783 332 0
314 783 -332 0
-314 -784 333 0
314 784 -333 0
-314 -785 334 0
314 785 -334 0
-314 -786 335 0
314 786 -335 0
-314 -787 336 0
314 787 -336 0
-314 -788 337 0
314 788 -337 0
-314 -789 338 0
314 789 -338 0
-314 -790 339 0
314 790 -339 0
-314 -791 340 0
314 791 -340 0
-314 -792 341 0
314 792 -341 0
-314 -793 342 0
314 793 -342 0
-314 -794 343 0
314 794 -343 0
-314 -795 344 0
314 795 -344 0
-314 -796 345 0
314 796 -345 0
-314 -797 346 0
314 797 -346 0
-314 -798 347 0
314 798 -347 0
-314 -799 348 0
314 799 -348 0
-314 -800 349 0
314 800 -349 0
-314 -801 350 0
314 801 -350 0
-315 -802 316 0
315 802 -316 0
-315 -803 317 0
315 803 -317 0
-315 -804 318 0
315 804 -318 0
-315 -805 319 0
315 805 -319 0
-315 -806 320 0
315 806 -320 0
-315 -807 321 0
315 807 -321 0
-315 -808 322 0
315 808 -322 0
-315 -809 323 0
315 809 -323 0
-315 -810 324 0
315 810 -324 0
-315 -811 325 0
315 811 -325 0
-315 -812 326 0
315 812 -326 0
-315 -813 327 0
315 813 -327 0
-315 -814 328 0
315 814 -328 0
-315 -815 329 0
315 815 -329 0
-315 -816 330 0
315 816 -330 0
-315 -817 331 0
315 817 -331 0
-315 -818 332 0
315 818 -332 0
-315 -819 333 0
315 819 -333 0
-315 -820 334 0
315 820 -334 0
-315 -821 335 0
315 821 -335 0
-315 -822 336 0
315 822 -336 0
-315 -823 337 0
315 823 -337 0
-315 -824 338 0
315 824 -338 0
-315 -825 339 0
315 825 -339 0
-315 -826 340 0
315 826 -340 0
-315 -827 341 0
315 827 -341 0
-315 -828 342 0
315 828 -342 0
-315 -829 343 0
315 829 -343 0
-315 -830 344 0
315 830 -344 0
-315 -831 345 0
315 831 -345 0
-315 -832 346 0
315 832 -346 0
-315 -833 347 0
315 833 -347 0
-315 -834 348 0
315 834 -348 0
-315 -835 349 0
315 835 -349 0
-315 -836 350 0
315 836 -350 0
-316 -837 317 0
316 837 -317 0
-316 -838 318 0
316 838 -318 0
-316 -839 319 0
316 839 -319 0
-316 -840 320 0
316 840 -320 0
-316 -841 321 0
316 841 -321 0
-316 -842 322 0
316 842 -322 0
-316 -843 323 0
316 843 -323 0
-316 -844 324 0
316 844 -324 0
-316 -845 325 0
316 845 -325 0
-316 -846 326 0
316 846 -326 0
-316 -847 327 0
316 847 -327 0
-316 -848 328 0
316 848 -328 0
-316 -849 329 0
316 849 -329 0
-316 -850 330 0
316 850 -330 0
-316 -851 331 0
316 851 -331 0
-316 -852 332 0
316 852 -332 0
-316 -853 333 0
316 853 -333 0
-316 -854 334 0
316 854 -334 0
-316 -855 335 0
316 855 -335 0
-316 -856 336 0
316 856 -336 0
-316 -857 337 0
316 857 -337 0
-316 -858 338 0
316 858 -338 0
-316 -859 339 0
316 859 -339 0
-316 -860 340 0
316 860 -340 0
-316 -861 341 0
316 861 -341 0
-316 -862 342 0
316 862 -342 0
-316 -863 343 0
316 863 -343 0
-316 -864 344 0
316 864 -344 0
-316 -865 345 0
316 865 -345 0
-316 -866 346 0
316 866 -346 0
-316 -867 347 0
316 867 -347 0
-316 -868 348 0
316 868 -348 0
-316 -869 349 0
316 869 -349 0
-316 -870 350 0
316 870 -350 0
-317 -871 318 0
317 871 -318 0
-317 -872 319 0
317 872 -319 0
-317 -873 320 0
317 873 -320 0
-317 -874 321 0
317 874 -321 0
-317 -875 322 0
317 875 -322 0
-317 -876 323 0
317 876 -323 0
-317 -877 324 0
317 877 -324 0
-317 -878 325 0
317 878 -325 0
-317 -879 326 0
317 879 -326 0
-317 -880 327 0
317 880 -327 0
-317 -881 328 0
317 881 -328 0
-317 -882 329 0
317 882 -329 0
-317 -883 330 0
317 883 -330 0
-317 -884 331 0
317 884 -331 0
-317 -885 332 0
317 885 -332 0
-317 -886 333 0
317 886 -333 0
-317 -887 334 0
317 887 -334 0
-317 -888 335 0
317 888 -335 0
-317 -889 336 0
317 889 -336 0
-317 -890 337 0
317 890 -337 0
-317 -891 338 0
317 891 -338 0
-317 -892 339 0
317 892 -339 0
-317 -893 340 0
317 893 -340 0
-317 -894 341 0
317 894 -341 0
-317 -895 342 0
317 895 -342 0
-317 -896 343 0
317 896 -343 0
-317 -897 344 0
317 897 -344 0
-317 -898 345 0
317 898 -345 0
-317 -899 346 0
317 899 -346 0
-317 -900 347 0
317 900 -347 0
-317 -901 348 0
317 901 -348 0
-317 -902 349 0
317 902 -349 0
-317 -903 350 0
317 903 -350 0
-318 -904 319 0
318 904 -319 0
-318 -905 320 0
318 905 -320 0
-318 -906 321 0
318 906 -321 0
-318 -907 322 0
318 907 -322 0
-318 -908 323 0
318 908 -323 0
-318 -909 324 0
318 909 -324 0
-318 -910 325 0
318 910 -325 0
-318 -911 326 0
318 911 -326 0
-318 -912 327 0
318 912 -327 0
-318 -913 328 0
318 913 -328 0
-318 -914 329 0
318 914 -329 0
-318 -915 330 0
318 915 -330 0
-318 -916 331 0
318 916 -331 0
-318 -917 332 0
318 917 -332 0
-318 -918 333 0
318 918 -333 0
-318 -919 334 0
318 919 -334 0
-318 -920 335 0
318 920 -335 0
-318 -921 336 0
318 921 -336 0
-318 -922 337 0
318 922 -337 0
-318 -923 338 0
318 923 -338 0
-318 -924 339 0
318 924 -339 0
-318 -925 340 0
318 925 -340 0
-318 -926 341 0
318 926 -341 0
-318 -927 342 0
318 927 -342 0
-318 -928 343 0
318 928 -343 0
-318 -929 344 0
318 929 -344 0
-318 -930 345 0
318 930 -345 0
-318 -931 346 0
318 931 -346 0
-318 -932 347 0
318 932 -347 0
-318 -933 348 0
318 933 -348 0
-318 -934 349 0
318 934 -349 0
-318 -935 350 0
318 935 -350 0
-319 -936 320 0
319 936 -320 0
-319 -937 321 0
319 937 -321 0
-319 -938 322 0
319 938 -322 0
-319 -939 323 0
319 939 -323 0
-319 -940 324 0
319 940 -324 0
-319 -941 325 0
319 941 -325 0
-319 -942 326 0
319 942 -326 0
-319 -943 327 0
319 943 -327 0
-319 -944 328 0
319 944 -328 0
-319 -945 329 0
319 945 -329 0
-319 -946 330 0
319 946 -330 0
-319 -947 331 0
319 947 -331 0
-319 -948 332 0
319 948 -332 0
-319 -949 333 0
319 949 -333 0
-319 -950 334 0
319 950 -334 0
-319 -951 335 0
319 951 -335 0
-319 -952 336 0
319 952 -336 0
-319 -953 337 0
319 953 -337 0
-319 -954 338 0
319 954 -338 0
-319 -955 339 0
319 955 -339 0
-319 -956 340 0
319 956 -340 0
-319 -957 341 0
319 957 -341 0
-319 -958 342 0
319 958 -342 0
-319 -959 343 0
319 959 -343 0
-319 -960 344 0
319 960 -344 0
-319 -961 345 0
319 961 -345 0
-319 -962 346 0
319 962 -346 0
-319 -963 347 0
319 963 -347 0
-319 -964 348 0
319 964 -348 0
-319 -965 349 0
319 965 -349 0
-319 -966 350 0
319 966 -350 0
-320 -967 321 0
320 967 -321 0
-320 -968 322 0
320 968 -322 0
-320 -969 323 0
320 969 -323 0
-320 -970 324 0
320 970 -324 0
-320 -971 325 0
320 971 -325 0
-320 -972 326 0
320 972 -326 0
-320 -973 327 0
320 973 -327 0
-320 -974 328 0
320 974 -328 0
-320 -975 329 0
320 975 -329 0
-320 -976 330 0
320 976 -330 0
-320 -977 331 0
320 977 -331 0
-320 -978 332 0
320 978 -332 0
-320 -979 333 0
320 979 -333 0
-320 -980 334 0
320 980 -334 0
-320 -981 335 0
320 981 -335 0
-320 -982 336 0
320 982 -336 0
-320 -983 337 0
320 983 -337 0
-320 -984 338 0
320 984 -338 0
-320 -985 339 0
320 985 -339 0
-320 -986 340 0
320 986 -340 0
-320 -987 341 0
320 987 -341 0
-320 -988 342 0
320 988 -342 0
-320 -989 343 0
320 989 -343 0
-320 -990 344 0
320 990 -344 0
-320 -991 345 0
320 991 -345 0
-320 -992 346 0
320 992 -346 0
-320 -993 347 0
320 993 -347 0
-320 -994 348 0
320 994 -348 0
-320 -995 349 0
320 995 -349 0
-320 -996 350 0
320 996 -350 0
-321 -997 322 0
321 997 -322 0
-321 -998 323 0
321 998 -323 0
-321 -999 324 0
321 999 -324 0
-321 -1000 325 0
321 1000 -325 0
-321 -1001 326 0
321 1001 -326 0
-321 -1002 327 0
321 1002 -327 0
-321 -1003 328 0
321 1003 -328 0
-321 -1004 329 0
321 1004 -329 0
-321 -1005 330 0
321 1005 -330 0
-321 -1006 331 0
321 1006 -331 0
-321 -1007 332 0
321 1007 -332 0
-321 -1008 333 0
321 1008 -333 0
-321 -1009 334 0
321 1009 -334 0
-321 -1010 335 0
321 1010 -335 0
-321 -1011 336 0
321 1011 -336 0
-321 -1012 337 0
321 1012 -337 0
-321 -1013 338 0
321 1013 -338 0
-321 -1014 339 0
321 1014 -339 0
-321 -1015 340 0
321 1015 -340 0
-321 -1016 341 0
321 1016 -341 0
-321 -1017 342 0
321 1017 -342 0
-321 -1018 343 0
321 1018 -343 0
-321 -1019 344 0
321 1019 -344 0
-321 -1020 345 0
321 1020 -345 0
-321 -1021 346 0
321 1021 -346 0
-321 -1022 347 0
321 1022 -347 0
-321 -1023 348 0
321 1023 -348 0
-321 -1024 349 0
321 1024 -349 0
-321 -1025 350 0
321 1025 -350 0
-322 -1026 323 0
322 1026 -323 0
-322 -1027 324 0
322 1027 -324 0
-322 -1028 325 0
322 1028 -325 0
-322 -1029 326 0
322 1029 -326 0
-322 -1030 327 0
322 1030 -327 0
-322 -1031 328 0
322 1031 -328 0
-322 -1032 329 0
322 1032 -329 0
-322 -1033 330 0
322 1033 -330 0
-322 -1034 331 0
322 1034 -331 0
-322 -1035 332 0
322 1035 -332 0
-322 -1036 333 0
322 1036 -333 0
-322 -1037 334 0
322 1037 -334 0
-322 -1038 335 0
322 1038 -335 0
-322 -1039 336 0
322 1039 -336 0
-322 -1040 337 0
322 1040 -337 0
-322 -1041 338 0
322 1041 -338 0
-322 -1042 339 0
322 1042 -339 0
-322 -1043 340 0
322 1043 -340 0
-322 -1044 341 0
322 1044 -341 0
-322 -1045 342 0
322 1045 -342 0
-322 -1046 343 0
322 1046 -343 0
-322 -1047 344 0
322 1047 -344 0
-322 -1048 345 0
322 1048 -345 0
-322 -1049 346 0
322 1049 -346 0
-322 -1050 347 0
322 1050 -347 0
-322 -1051 348 0
322 1051 -348 0
-322 -1052 349 0
322 1052 -349 0
-322 -1053 350 0
322 1053 -350 0
-323 -1054 324 0
323 1054 -324 0
-323 -1055 325 0
323 1055 -325 0
-323 -1056 326 0
323 1056 -326 0
-323 -1057 327 0
323 1057 -327 0
-323 -1058 328 0
323 1058 -328 0
-323 -1059 329 0
323 1059 -329 0
-323 -1060 330 0
323 1060 -330 0
-323 -1061 331 0
323 1061 -331 0
-323 -1062 332 0
323 1062 -332 0
-323 -1063 333 0
323 1063 -333 0
-323 -1064 334 0
323 1064 -334 0
-323 -1065 335 0
323 1065 -335 0
-323 -1066 336 0
323 1066 -336 0
-323 -1067 337 0
323 1067 -337 0
-323 -1068 338 0
323 1068 -338 0
-323 -1069 339 0
323 1069 -339 0
-323 -1070 340 0
323 1070 -340 0
-323 -1071 341 0
323 1071 -341 0
-323 -1072 342 0
323 1072 -342 0
-323 -1073 343 0
323 1073 -343 0
-323 -1074 344 0
323 1074 -344 0
-323 -1075 345 0
323 1075 -345 0
-323 -1076 346 0
323 1076 -346 0
-323 -1077 347 0
323 1077 -347 0
-323 -1078 348 0
323 1078 -348 0
-323 -1079 349 0
323 1079 -349 0
-323 -1080 350 0
323 1080 -350 0
-324 -1081 325 0
324 1081 -325 0
-324 -1082 326 0
324 1082 -326 0
-324 -1083 327 0
324 1083 -327 0
-324 -1084 328 0
324 1084 -328 0
-324 -1085 329 0
324 1085 -329 0
-324 -1086 330 0
324 1086 -330 0
-324 -1087 331 0
324 1087 -331 0
-324 -1088 332 0
324 1088 -332 0
-324 -1089 333 0
324 1089 -333 0
-324 -1090 334 0
324 1090 -334 0
-324 -1091 335 0
324 1091 -335 0
-324 -1092 336 0
324 1092 -336 0
-324 -1093 337 0
324 1093 -337 0
-324 -1094 338 0
324 1094 -338 0
-324 -1095 339 0
324 1095 -339 0
-324 -1096 340 0
324 1096 -340 0
-324 -1097 341 0
324 1097 -341 0
-324 -1098 342 0
324 1098 -342 0
-324 -1099 343 0
324 1099 -343 0
-324 -1100 344 0
324 1100 -344 0
-324 -1101 345 0
324 1101 -345 0
-324 -1102 346 0
324 1102 -346 0
-324 -1103 347 0
324 1103 -347 0
-324 -1104 348 0
324 1104 -348 0
-324 -1105 349 0
324 1105 -349 0
-324 -1106 350 0
324 1106 -350 0
-325 -1107 326 0
325 1107 -326 0
-325 -1108 327 0
325 1108 -327 0
-325 -1109 328 0
325 1109 -328 0
-325 -1110 329 0
325 1110 -329 0
-325 -1111 330 0
325 1111 -330 0
-325 -1112 331 0
325 1112 -331 0
-325 -1113 332 0
325 1113 -332 0
-325 -1114 333 0
325 1114 -333 0
-325 -1115 334 0
325 1115 -334 0
-325 -1116 335 0
325 1116 -335 0
-325 -1117 336 0
325 1117 -336 0
-325 -1118 337 0
325 1118 -337 0
-325 -1119 338 0
325 1119 -338 0
-325 -1120 339 0
325 1120 -339 0
-325 -1121 340 0
325 1121 -340 0
-325 -1122 341 0
325 1122 -341 0
-325 -1123 342 0
325 1123 -342 0
-325 -1124 343 0
325 1124 -343 0
-325 -1125 344 0
325 1125 -344 0
-325 -1126 345 0
325 1126 -345 0
-325 -1127 346 0
325 1127 -346 0
-325 -1128 347 0
325 1128 -347 0
-325 -1129 348 0
325 1129 -348 0
-325 -1130 349 0
325 1130 -349 0
-325 -1131 350 0
325 1131 -350 0
-326 -1132 327 0
326 1132 -327 0
-326 -1133 328 0
326 1133 -328 0
-326 -1134 329 0
326 1134 -329 0
-326 -1135 330 0
326 1135 -330 0
-326 -1136 331 0
326 1136 -331 0
-326 -1137 332 0
326 1137 -332 0
-326 -1138 333 0
326 1138 -333 0
-326 -1139 334 0
326 1139 -334 0
-326 -1140 335 0
326 1140 -335 0
-326 -1141 336 0
326 1141 -336 0
-326 -1142 337 0
326 1142 -337 0
-326 -1143 338 0
326 1143 -338 0
-326 -1144 339 0
326 1144 -339 0
-326 -1145 340 0
326 1145 -340 0
-326 -1146 341 0
326 1146 -341 0
-326 -1147 342 0
326 1147 -342 0
-326 -1148 343 0
326 1148 -343 0
-326 -1149 344 0
326 1149 -344 0
-326 -1150 345 0
326 1150 -345 0
-326 -1151 346 0
326 1151 -346 0
-326 -1152 347 0
326 1152 -347 0
-326 -1153 348 0
326 1153 -348 0
-326 -1154 349 0
326 1154 -349 0
-326 -1155 350 0
326 1155 -350 0
-327 -1156 328 0
327 1156 -328 0
-327 -1157 329 0
327 1157 -329 0
-327 -1158 330 0
327 1158 -330 0
-327 -1159 331 0
327 1159 -331 0
-327 -1160 332 0
327 1160 -332 0
-327 -1161 333 0
327 1161 -333 0
-327 -1162 334 0
327 1162 -334 0
-327 -1163 335 0
327 1163 -335 0
-327 -1164 336 0
327 1164 -336 0
-327 -1165 337 0
327 1165 -337 0
-327 -1166 338 0
327 1166 -338 0
-327 -1167 339 0
327 1167 -339 0
-327 -1168 340 0
327 1168 -340 0
-327 -1169 341 0
327 1169 -341 0
-327 -1170 342 0
327 1170 -342 0
-327 -1171 343 0
327 1171 -343 0
-327 -1172 344 0
327 1172 -344 0
-327 -1173 345 0
327 1173 -345 0
-327 -1174 346 0
327 1174 -346 0
-327 -1175 347 0
327 1175 -347 0
-327 -1176 348 0
327 1176 -348 0
-327 -1177 349 0
327 1177 -349 0
-327 -1178 350 0
327 1178 -350 0
-328 -1179 329 0
328 1179 -329 0
-328 -1180 330 0
328 1180 -330 0
-328 -1181 331 0
328 1181 -331 0
-328 -1182 332 0
328 1182 -332 0
-328 -1183 333 0
328 1183 -333 0
-328 -1184 334 0
328 1184 -334 0
-328 -1185 335 0
328 1185 -335 0
-328 -1186 336 0
328 1186 -336 0
-328 -1187 337 0
328 1187 -337 0
-328 -1188 338 0
328 1188 -338 0
-328 -1189 339 0
328 1189 -339 0
-328 -1190 340 0
328 1190 -340 0
-328 -1191 341 0
328 1191 -341 0
-328 -1192 342 0
328 1192 -342 0
-328 -1193 343 0
328 1193 -343 0
-328 -1194 344 0
328 1194 -344 0
-328 -1195 345 0
328 1195 -345 0
-328 -1196 346 0
328 1196 -346 0
-328 -1197 347 0
328 1197 -347 0
-328 -1198 348 0
328 1198 -348 0
-328 -1199 349 0
328 1199 -349 0
-328 -1200 350 0
328 1200 -350 0
-329 -1201 330 0
329 1201 -330 0
-329 -1202 331 0
329 1202 -331 0
-329 -1203 332 0
329 1203 -332 0
-329 -1204 333 0
329 1204 -333 0
-329 -1205 334 0
329 1205 -334 0
-329 -1206 335 0
329 1206 -335 0
-329 -1207 336 0
329 1207 -336 0
-329 -1208 337 0
329 1208 -337 0
-329 -1209 338 0
329 1209 -338 0
-329 -1210 339 0
329 1210 -339 0
-329 -1211 340 0
329 1211 -340 0
-329 -1212 341 0
329 1212 -341 0
-329 -1213 342 0
329 1213 -342 0
-329 -1214 343 0
329 1214 -343 0
-329 -1215 344 0
329 1215 -344 0
-329 -1216 345 0
329 1216 -345 0
-329 -1217 346 0
329 1217 -346 0
-329 -1218 347 0
329 1218 -347 0
-329 -1219 348 0
329 1219 -348 0
-329 -1220 349 0
329 1220 -349 0
-329 -1221 350 0
329 1221 -350 0
-330 -1222 331 0
330 1222 -331 0
-330 -1223 332 0
330 1223 -332 0
-330 -1224 333 0
330 1224 -333 0
-330 -1225 334 0
330 1225 -334 0
-330 -1226 335 0
330 1226 -335 0
-330 -1227 336 0
330 1227 -336 0
-330 -1228 337 0
330 1228 -337 0
-330 -1229 338 0
330 1229 -338 0
-330 -1230 339 0
330 1230 -339 0
-330 -1231 340 0
330 1231 -340 0
-330 -1232 341 0
330 1232 -341 0
-330 -1233 342 0
330 1233 -342 0
-330 -1234 343 0
330 1234 -343 0
-330 -1235 344 0
330 1235 -344 0
-330 -1236 345 0
330 1236 -345 0
-330 -1237 346 0
330 1237 -346 0
-330 -1238 347 0
330 1238 -347 0
-330 -1239 348 0
330 1239 -348 0
-330 -1240 349 0
330 1240 -349 0
-330 -1241 350 0
330 1241 -350 0
-331 -1242 332 0
331 1242 -332 0
-331 -1243 333 0
331 1243 -333 0
-331 -1244 334 0
331 1244 -334 0
-331 -1245 335 0
331 1245 -335 0
-331 -1246 336 0
331 1246 -336 0
-331 -1247 337 0
331 1247 -337 0
-331 -1248 338 0
331 1248 -338 0
-331 -1249 339 0
331 1249 -339 0
-331 -1250 340 0
331 1250 -340 0
-331 -1251 341 0
331 1251 -341 0
-331 -1252 342 0
331 1252 -342 0
-331 -1253 343 0
331 1253 -343 0
-331 -1254 344 0
331 1254 -344 0
-331 -1255 345 0
331 1255 -345 0
-331 -1256 346 0
331 1256 -346 0
-331 -1257 347 0
331 1257 -347 0
-331 -1258 348 0
331 1258 -348 0
-331 -1259 349 0
331 1259 -349 0
-331 -1260 350 0
331 1260 -350 0
-332 -1261 333 0
332 1261 -333 0
-332 -1262 334 0
332 1262 -334 0
-332 -1263 335 0
332 1263 -335 0
-332 -1264 336 0
332 1264 -336 0
-332 -1265 337 0
332 1265 -337 0
-332 -1266 338 0
332 1266 -338 0
-332 -1267 339 0
332 1267 -339 0
-332 -1268 340 0
332 1268 -340 0
-332 -1269 341 0
332 1269 -341 0
-332 -1270 342 0
332 1270 -342 0
-332 -1271 343 0
332 1271 -343 0
-332 -1272 344 0
332 1272 -344 0
-332 -1273 345 0
332 1273 -345 0
-332 -1274 346 0
332 1274 -346 0
-332 -1275 347 0
332 1275 -347 0
-332 -1276 348 0
332 1276 -348 0
-332 -1277 349 0
332 1277 -349 0
-332 -1278 350 0
332 1278 -350 0
-333 -1279 334 0
333 1279 -334 0
-333 -1280 335 0
333 1280 -335 0
-333 -1281 336 0
333 1281 -336 0
-333 -1282 337 0
333 1282 -337 0
-333 -1283 338 0
333 1283 -338 0
-333 -1284 339 0
333 1284 -339 0
-333 -1285 340 0
333 1285 -340 0
-333 -1286 341 0
333 1286 -341 0
-333 -1287 342 0
333 1287 -342 0
-333 -1288 343 0
333 1288 -343 0
-333 -1289 344 0
333 1289 -344 0
-333 -1290 345 0
333 1290 -345 0
-333 -1291 346 0
333 1291 -346 0
-333 -1292 347 0
333 1292 -347 0
-333 -1293 348 0
333 1293 -348 0
-333 -1294 349 0
333 1294 -349 0
-333 -1295 350 0
333 1295 -350 0
-334 -1296 335 0
334 1296 -335 0
-334 -1297 336 0
334 1297 -336 0
-334 -1298 337 0
334 1298 -337 0
-334 -1299 338 0
334 1299 -338 0
-334 -1300 339 0
334 1300 -339 0
-334 -1301 340 0
334 1301 -340 0
-334 -1302 341 0
334 1302 -341 0
-334 -1303 342 0
334 1303 -342 0
-334 -1304 343 0
334 1304 -343 0
-334 -1305 344 0
334 1305 -344 0
-334 -1306 345 0
334 1306 -345 0
-334 -1307 346 0
334 1307 -346 0
-334 -1308 347 0
334 1308 -347 0
-334 -1309 348 0
334 1309 -348 0
-334 -1310 349 0
334 1310 -349 0
-334 -1311 350 0
334 1311 -350 0
-335 -1312 336 0
335 1312 -336 0
-335 -1313 337 0
335 1313 -337 0
-335 -1314 338 0
335 1314 -338 0
-335 -1315 339 0
335 1315 -339 0
-335 -1316 340 0
335 1316 -340 0
-335 -1317 341 0
335 1317 -341 0
-335 -1318 342 0
335 1318 -342 0
-335 -1319 343 0
335 1319 -343 0
-335 -1320 344 0
335 1320 -344 0
-335 -1321 345 0
335 1321 -345 0
-335 -1322 346 0
335 1322 -346 0
-335 -1323 347 0
335 1323 -347 0
-335 -1324 348 0
335 1324 -348 0
-335 -1325 349 0
335 1325 -349 0
-335 -1326 350 0
335 1326 -350 0
-336 -1327 337 0
336 1327 -337 0
-336 -1328 338 0
336 1328 -338 0
-336 -1329 339 0
336 1329 -339 0
-336 -1330 340 0
336 1330 -340 0
-336 -1331 341 0
336 1331 -341 0
-336 -1332 342 0
336 1332 -342 0
-336 -1333 343 0
336 1333 -343 0
-336 -1334 344 0
336 1334 -344 0
-336 -1335 345 0
336 1335 -345 0
-336 -1336 346 0
336 1336 -346 0
-336 -1337 347 0
336 1337 -347 0
-336 -1338 348 0
336 1338 -348 0
-336 -1339 349 0
336 1339 -349 0
-336 -1340 350 0
336 1340 -350 0
-337 -1341 338 0
337 1341 -338 0
-337 -1342 339 0
337 1342 -339 0
-337 -1343 340 0
337 1343 -340 0
-337 -1344 341 0
337 1344 -341 0
-337 -1345 342 0
337 1345 -342 0
-337 -1346 343 0
337 1346 -343 0
-337 -1347 344 0
337 1347 -344 0
-337 -1348 345 0
337 1348 -345 0
-337 -1349 346 0
337 1349 -346 0
-337 -1350 347 0
337 1350 -347 0
-337 -1351 348 0
337 1351 -348 0
-337 -1352 349 0
337 1352 -349 0
-337 -1353 350 0
337 1353 -350 0
-338 -1354 339 0
338 1354 -339 0
-338 -1355 340 0
338 1355 -340 0
-338 -1356 341 0
338 1356 -341 0
-338 -1357 342 0
338 1357 -342 0
-338 -1358 343 0
338 1358 -343 0
-338 -1359 344 0
338 1359 -344 0
-338 -1360 345 0
338 1360 -345 0
-338 -1361 346 0
338 1361 -346 0
-338 -1362 347 0
338 1362 -347 0
-338 -1363 348 0
338 1363 -348 0
-338 -1364 349 0
338 1364 -349 0
-338 -1365 350 0
338 1365 -350 0
-339 -1366 340 0
339 1366 -340 0
-339 -1367 341 0
339 1367 -341 0
-339 -1368 342 0
339 1368 -342 0
-339 -1369 343 0
339 1369 -343 0
-339 -1370 344 0
339 1370 -344 0
-339 -1371 345 0
339 1371 -345 0
-339 -1372 346 0
339 1372 -346 0
-339 -1373 347 0
339 1373 -347 0
-339 -1374 348 0
339 1374 -348 0
-339 -1375 349 0
339 1375 -349 0
-339 -1376 350 0
339 1376 -350 0
-340 -1377 341 0
340 1377 -341 0
-340 -1378 342 0
340 1378 -342 0
-340 -1379 343 0
340 1379 -343 0
-340 -1380 344 0
340 1380 -344 0
-340 -1381 345 0
340 1381 -345 0
-340 -1382 346 0
340 1382 -346 0
-340 -1383 347 0
340 1383 -347 0
-340 -1384 348 0
340 1384 -348 0
-340 -1385 349 0
340 1385 -349 0
-340 -1386 350 0
340 1386 -350 0
-341 -1387 342 0
341 1387 -342 0
-341 -1388 343 0
341 1388 -343 0
-341 -1389 344 0
341 1389 -344 0
-341 -1390 345 0
341 1390 -345 0
-341 -1391 346 0
341 1391 -346 0
-341 -1392 347 0
341 1392 -347 0
-341 -1393 348 0
341 1393 -348 0
-341 -1394 349 0
341 1394 -349 0
-341 -1395 350 0
341 1395 -350 0
-342 -1396 343 0
342 1396 -343 0
-342 -1397 344 0
342 1397 -344 0
-342 -1398 345 0
342 1398 -345 0
-342 -1399 346 0
342 1399 -346 0
-342 -1400 347 0
342 1400 -347 0
-342 -1401 348 0
342 1401 -348 0
-342 -1402 349 0
342 1402 -349 0
-342 -1403 350 0
342 1403 -350 0
-343 -1404 344 0
343 1404 -344 0
-343 -1405 345 0
343 1405 -345 0
-343 -1406 346 0
343 1406 -346 0
-343 -1407 347 0
343 1407 -347 0
-343 -1408 348 0
343 1408 -348 0
-343 -1409 349 0
343 1409 -349 0
-343 -1410 350 0
343 1410 -350 0
-344 -1411 345 0
344 1411 -345 0
-344 -1412 346 0
344 1412 -346 0
-344 -1413 347 0
344 1413 -347 0
-344 -1414 348 0
344 1414 -348 0
-344 -1415 349 0
344 1415 -349 0
-344 -1416 350 0
344 1416 -350 0
-345 -1417 346 0
345 1417 -346 0
-345 -1418 347 0
345 1418 -347 0
-345 -1419 348 0
345 1419 -348 0
-345 -1420 349 0
345 1420 -349 0
-345 -1421 350 0
345 1421 -350 0
-346 -1422 347 0
346 1422 -347 0
-346 -1423 348 0
346 1423 -348 0
-346 -1424 349 0
346 1424 -349 0
-346 -1425 350 0
346 1425 -350 0
-347 -1426 348 0
347 1426 -348 0
-347 -1427 349 0
347 1427 -349 0
-347 -1428 350 0
347 1428 -350 0
-348 -1429 349 0
348 1429 -349 0
-348 -1430 350 0
348 1430 -350 0
-349 -1431 350 0
349 1431 -350 0
-351 -397 352 0
351 397 -352 0
-351 -398 353 0
351 398 -353 0
-351 -399 354 0
351 399 -354 0
-351 -400 355 0
351 400 -355 0
-351 -401 356 0
351 401 -356 0
-351 -402 357 0
351 402 -357 0
-351 -403 358 0
351 403 -358 0
-351 -404 359 0
351 404 -359 0
-351 -405 360 0
351 405 -360 0
-351 -406 361 0
351 406 -361 0
-351 -407 362 0
351 407 -362 0
-351 -408 363 0
351 408 -363 0
-351 -409 364 0
351 409 -364 0
-351 -410 365 0
351 410 -365 0
-351 -411 366 0
351 411 -366 0
-351 -412 367 0
351 412 -367 0
-351 -413 368 0
351 413 -368 0
-351 -414 369 0
351 414 -369 0
-351 -415 370 0
351 415 -370 0
-351 -416 371 0
351 416 -371 0
-351 -417 372 0
351 417 -372 0
-351 -418 373 0
351 418 -373 0
-351 -419 374 0
351 419 -374 0
-351 -420 375 0
351 420 -375 0
-351 -421 376 0
351 421 -376 0
-351 -422 377 0
351 422 -377 0
-351 -423 378 0
351 423 -378 0
-351 -424 379 0
351 424 -379 0
-351 -425 380 0
351 425 -380 0
-351 -426 381 0
351 426 -381 0
-351 -427 382 0
351 427 -382 0
-351 -428 383 0
351 428 -383 0
-351 -429 384 0
351 429 -384 0
-351 -430 385 0
351 430 -385 0
-351 -431 386 0
351 431 -386 0
-351 -432 387 0
351 432 -387 0
-351 -433 388 0
351 433 -388 0
-351 -434 389 0
351 434 -389 0
-351 -435 390 0
351 435 -390 0
-351 -436 391 0
351 436 -391 0
-351 -437 392 0
351 437 -392 0
-351 -438 393 0
351 438 -393 0
-351 -439 394 0
351 439 -394 0
-351 -440 395 0
351 440 -395 0
-351 -441 396 0
351 441 -396 0
-352 -442 353 0
352 442 -353 0
-352 -443 354 0
352 443 -354 0
-352 -444 355 0
352 444 -355 0
-352 -445 356 0
352 445 -356 0
-352 -446 357 0
352 446 -357 0
-352 -447 358 0
352 447 -358 0
-352 -448 359 0
352 448 -359 0
-352 -449 360 0
352 449 -360 0
-352 -450 361 0
352 450 -361 0
-352 -451 362 0
352 451 -362 0
-352 -452 363 0
352 452 -363 0
-352 -453 364 0
352 453 -364 0
-352 -454 365 0
352 454 -365 0
-352 -455 366 0
352 455 -366 0
-352 -456 367 0
352 456 -367 0
-352 -457 368 0
352 457 -368 0
-352 -458 369 0
352 458 -369 0
-352 -459 370 0
352 459 -370 0
-352 -460 371 0
352 460 -371 0
-352 -461 372 0
352 461 -372 0
-352 -462 373 0
352 462 -373 0
-352 -463 374 0
352 463 -374 0
-352 -464 375 0
352 464 -375 0
-352 -465 376 0
352 465 -376 0
-352 -466 377 0
352 466 -377 0
-352 -467 378 0
352 467 -378 0
-352 -468 379 0
352 468 -379 0
-352 -469 380 0
352 469 -380 0
-352 -470 381 0
352 470 -381 0
-352 -471 382 0
352 471 -382 0
-352 -472 383 0
352 472 -383 0
-352 -473 384 0
352 473 -384 0
-352 -474 385 0
352 474 -385 0
-352 -475 386 0
352 475 -386 0
-352 -476 387 0
352 476 -387 0
-352 -477 388 0
352 477 -388 0
-352 -478 389 0
352 478 -389 0
-352 -479 390 0
352 479 -390 0
-352 -480 391 0
352 480 -391 0
-352 -481 392 0
352 481 -392 0
-352 -482 393 0
352 482 -393 0
-352 -483 394 0
352 483 -394 0
-352 -484 395 0
352 484 -395 0
-352 -485 396 0
352 485 -396 0
-353 -486 354 0
353 486 -354 0
-353 -487 355 0
353 487 -355 0
-353 -488 356 0
353 488 -356 0
-353 -489 357 0
353 489 -357 0
-353 -490 358 0
353 490 -358 0
-353 -491 359 0
353 491 -359 0
-353 -492 360 0
353 492 -360 0
-353 -493 361 0
353 493 -361 0
-353 -494 362 0
353 494 -362 0
-353 -495 363 0
353 495 -363 0
-353 -496 364 0
353 496 -364 0
-353 -497 365 0
353 497 -365 0
-353 -498 366 0
353 498 -366 0
-353 -499 367 0
353 499 -367 0
-353 -500 368 0
353 500 -368 0
-353 -501 369 0
353 501 -369 0
-353 -502 370 0
353 502 -370 0
-353 -503 371 0
353 503 -371 0
-353 -504 372 0
353 504 -372 0
-353 -505 373 0
353 505 -373 0
-353 -506 374 0
353 506 -374 0
-353 -507 375 0
353 507 -375 0
-353 -508 376 0
353 508 -376 0
-353 -509 377 0
353 509 -377 0
-353 -510 378 0
353 510 -378 0
-353 -511 379 0
353 511 -379 0
-353 -512 380 0
353 512 -380 0
-353 -513 381 0
353 513 -381 0
-353 -514 382 0
353 514 -382 0
-353 -515 383 0
353 515 -383 0
-353 -516 384 0
353 516 -384 0
-353 -517 385 0
353 517 -385 0
-353 -518 386 0
353 518 -386 0
-353 -519 387 0
353 519 -387 0
-353 -520 388 0
353 520 -388 0
-353 -521 389 0
353 521 -389 0
-353 -522 390 0
353 522 -390 0
-353 -523 391 0
353 523 -391 0
-353 -524 392 0
353 524 -392 0
-353 -525 393 0
353 525 -393 0
-353 -526 394 0
353 526 -394 0
-353 -527 395 0
353 527 -395 0
-353 -528 396 0
353 528 -396 0
-354 -529 355 0
354 529 -355 0
-354 -530 356 0
354 530 -356 0
-354 -531 357 0
354 531 -357 0
-354 -532 358 0
354 532 -358 0
-354 -533 359 0
354 533 -359 0
-354 -534 360 0
354 534 -360 0
-354 -535 361 0
354 535 -361 0
-354 -536 362 0
354 536 -362 0
-354 -537 363 0
354 537 -363 0
-354 -538 364 0
354 538 -364 0
-354 -539 365 0
354 539 -365 0
-354 -540 366 0
354 540 -366 0
-354 -541 367 0
354 541 -367 0
-354 -542 368 0
354 542 -368 0
-354 -543 369 0
354 543 -369 0
-354 -544 370 0
354 544 -370 0
-354 -545 371 0
354 545 -371 0
-354 -546 372 0
354 546 -372 0
-354 -547 373 0
354 547 -373 0
-354 -548 374 0
354 548 -374 0
-354 -549 375 0
354 549 -375 0
-354 -550 376 0
354 550 -376 0
-354 -551 377 0
354 551 -377 0
-354 -552 378 0
354 552 -378 0
-354 -553 379 0
354 553 -379 0
-354 -554 380 0
354 554 -380 0
-354 -555 381 0
354 555 -381 0
-354 -556 382 0
354 556 -382 0
-354 -557 383 0
354 557 -383 0
-354 -558 384 0
354 558 -384 0
-354 -559 385 0
354 559 -385 0
-354 -560 386 0
354 560 -386 0
-354 -561 387 0
354 561 -387 0
-354 -562 388 0
354 562 -388 0
-354 -563 389 0
354 563 -389 0
-354 -564 390 0
354 564 -390 0
-354 -565 391 0
354 565 -391 0
-354 -566 392 0
354 566 -392 0
-354 -567 393 0
354 567 -393 0
-354 -568 394 0
354 568 -394 0
-354 -569 395 0
354 569 -395 0
-354 -570 396 0
354 570 -396 0
-355 -571 356 0
355 571 -356 0
-355 -572 357 0
355 572 -357 0
-355 -573 358 0
355 573 -358 0
-355 -574 359 0
355 574 -359 0
-355 -575 360 0
355 575 -360 0
-355 -576 361 0
355 576 -361 0
-355 -577 362 0
355 577 -362 0
-355 -578 363 0
355 578 -363 0
-355 -579 364 0
355 579 -364 0
-355 -580 365 0
355 580 -365 0
-355 -581 366 0
355 581 -366 0
-355 -582 367 0
355 582 -367 0
-355 -583 368 0
355 583 -368 0
-355 -584 369 0
355 584 -369 0
-355 -585 370 0
355 585 -370 0
-355 -586 371 0
355 586 -371 0
-355 -587 372 0
355 587 -372 0
-355 -588 373 0
355 588 -373 0
-355 -589 374 0
355 589 -374 0
-355 -590 375 0
355 590 -375 0
-355 -591 376 0
355 591 -376 0
-355 -592 377 0
355 592 -377 0
-355 -593 378 0
355 593 -378 0
-355 -594 379 0
355 594 -379 0
-355 -595 380 0
355 595 -380 0
-355 -596 381 0
355 596 -381 0
-355 -597 382 0
355 597 -382 0
-355 -598 383 0
355 598 -383 0
-355 -599 384 0
355 599 -384 0
-355 -600 385 0
355 600 -385 0
-355 -601 386 0
355 601 -386 0
-355 -602 387 0
355 602 -387 0
-355 -603 388 0
355 603 -388 0
-355 -604 389 0
355 604 -389 0
-355 -605 390 0
355 605 -390 0
-355 -606 391 0
355 606 -391 0
-355 -607 392 0
355 607 -392 0
-355 -608 393 0
355 608 -393 0
-355 -609 394 0
355 609 -394 0
-355 -610 395 0
355 610 -395 0
-355 -611 396 0
355 611 -396 0
-356 -612 357 0
356 612 -357 0
-356 -613 358 0
356 613 -358 0
-356 -614 359 0
356 614 -359 0
-356 -615 360 0
356 615 -360 0
-356 -616 361 0
356 616 -361 0
-356 -617 362 0
356 617 -362 0
-356 -618 363 0
356 618 -363 0
-356 -619 364 0
356 619 -364 0
-356 -620 365 0
356 620 -365 0
-356 -621 366 0
356 621 -366 0
-356 -622 367 0
356 622 -367 0
-356 -623 368 0
356 623 -368 0
-356 -624 369 0
356 624 -369 0
-356 -625 370 0
356 625 -370 0
-356 -626 371 0
356 626 -371 0
-356 -627 372 0
356 627 -372 0
-356 -628 373 0
356 628 -373 0
-356 -629 374 0
356 629 -374 0
-356 -630 375 0
356 630 -375 0
-356 -631 376 0
356 631 -376 0
-356 -632 377 0
356 632 -377 0
-356 -633 378 0
356 633 -378 0
-356 -634 379 0
356 634 -379 0
-356 -635 380 0
356 635 -380 0
-356 -636 381 0
356 636 -381 0
-356 -637 382 0
356 637 -382 0
-356 -638 383 0
356 638 -383 0
-356 -639 384 0
356 639 -384 0
-356 -640 385 0
356 640 -385 0
-356 -641 386 0
356 641 -386 0
-356 -642 387 0
356 642 -387 0
-356 -643 388 0
356 643 -388 0
-356 -644 389 0
356 644 -389 0
-356 -645 390 0
356 645 -390 0
-356 -646 391 0
356 646 -391 0
-356 -647 392 0
356 647 -392 0
-356 -648 393 0
356 648 -393 0
-356 -649 394 0
356 649 -394 0
-356 -650 395 0
356 650 -395 0
-356 -651 396 0
356 651 -396 0
-357 -652 358 0
357 652 -358 0
-357 -653 359 0
357 653 -359 0
-357 -654 360 0
357 654 -360 0
-357 -655 361 0
357 655 -361 0
-357 -656 362 0
357 656 -362 0
-357 -657 363 0
357 657 -363 0
-357 -658 364 0
357 658 -364 0
-357 -659 365 0
357 659 -365 0
-357 -660 366 0
357 660 -366 0
-357 -661 367 0
357 661 -367 0
-357 -662 368 0
357 662 -368 0
-357 -663 369 0
357 663 -369 0
-357 -664 370 0
357 664 -370 0
-357 -665 371 0
357 665 -371 0
-357 -666 372 0
357 666 -372 0
-357 -667 373 0
357 667 -373 0
-357 -668 374 0
357 668 -374 0
-357 -669 375 0
357 669 -375 0
-357 -670 376 0
357 670 -376 0
-357 -671 377 0
357 671 -377 0
-357 -672 378 0
357 672 -378 0
-357 -673 379 0
357 673 -379 0
-357 -674 380 0
357 674 -380 0
-357 -675 381 0
357 675 -381 0
-357 -676 382 0
357 676 -382 0
-357 -677 383 0
357 677 -383 0
-357 -678 384 0
357 678 -384 0
-357 -679 385 0
357 679 -385 0
-357 -680 386 0
357 680 -386 0
-357 -681 387 0
357 681 -387 0
-357 -682 388 0
357 682 -388 0
-357 -683 389 0
357 683 -389 0
-357 -684 390 0
357 684 -390 0
-357 -685 391 0
357 685 -391 0
-357 -686 392 0
357 686 -392 0
-357 -687 393 0
357 687 -393 0
-357 -688 394 0
357 688 -394 0
-357 -689 395 0
357 689 -395 0
-357 -690 396 0
357 690 -396 0
-358 -691 359 0
358 691 -359 0
-358 -692 360 0
358 692 -360 0
-358 -693 361 0
358 693 -361 0
-358 -694 362 0
358 694 -362 0
-358 -695 363 0
358 695 -363 0
-358 -696 364 0
358 696 -364 0
-358 -697 365 0
358 697 -365 0
-358 -698 366 0
358 698 -366 0
-358 -699 367 0
358 699 -367 0
-358 -700 368 0
358 700 -368 0
-358 -701 369 0
358 701 -369 0
-358 -702 370 0
358 702 -370 0
-358 -703 371 0
358 703 -371 0
-358 -704 372 0
358 704 -372 0
-358 -705 373 0
358 705 -373 0
-358 -706 374 0
358 706 -374 0
-358 -707 375 0
358 707 -375 0
-358 -708 376 0
358 708 -376 0
-358 -709 377 0
358 709 -377 0
-358 -710 378 0
358 710 -378 0
-358 -711 379 0
358 711 -379 0
-358 -712 380 0
358 712 -380 0
-358 -713 381 0
358 713 -381 0
-358 -714 382 0
358 714 -382 0
-358 -715 383 0
358 715 -383 0
-358 -716 384 0
358 716 -384 0
-358 -717 385 0
358 717 -385 0
-358 -718 386 0
358 718 -386 0
-358 -719 387 0
358 719 -387 0
-358 -720 388 0
358 720 -388 0
-358 -721 389 0
358 721 -389 0
-358 -722 390 0
358 722 -390 0
-358 -723 391 0
358 723 -391 0
-358 -724 392 0
358 724 -392 0
-358 -725 393 0
358 725 -393 0
-358 -726 394 0
358 726 -394 0
-358 -727 395 0
358 727 -395 0
-358 -728 396 0
358 728 -396 0
-359 -729 360 0
359 729 -360 0
-359 -730 361 0
359 730 -361 0
-359 -731 362 0
359 731 -362 0
-359 -732 363 0
359 732 -363 0
-359 -733 364 0
359 733 -364 0
-359 -734 365 0
359 734 -365 0
-359 -735 366 0
359 735 -366 0
-359 -736 367 0
359 736 -367 0
-359 -737 368 0
359 737 -368 0
-359 -738 369 0
359 738 -369 0
-359 -739 370 0
359 739 -370 0
-359 -740 371 0
359 740 -371 0
-359 -741 372 0
359 741 -372 0
-359 -742 373 0
359 742 -373 0
-359 -743 374 0
359 743 -374 0
-359 -744 375 0
359 744 -375 0
-359 -745 376 0
359 745 -376 0
-359 -746 377 0
359 746 -377 0
-359 -747 378 0
359 747 -378 0
-359 -748 379 0
359 748 -379 0
-359 -749 380 0
359 749 -380 0
-359 -750 381 0
359 750 -381 0
-359 -751 382 0
359 751 -382 0
-359 -752 383 0
359 752 -383 0
-359 -753 384 0
359 753 -384 0
-359 -754 385 0
359 754 -385 0
-359 -755 386 0
359 755 -386 0
-359 -756 387 0
359 756 -387 0
-359 -757 388 0
359 757 -388 0
-359 -758 389 0
359 758 -389 0
-359 -759 390 0
359 759 -390 0
-359 -760 391 0
359 760 -391 0
-359 -761 392 0
359 761 -392 0
-359 -762 393 0
359 762 -393 0
-359 -763 394 0
359 763 -394 0
-359 -764 395 0
359 764 -395 0
-359 -765 396 0
359 765 -396 0
-360 -766 361 0
360 766 -361 0
-360 -767 362 0
360 767 -362 0
-360 -768 363 0
360 768 -363 0
-360 -769 364 0
360 769 -364 0
-360 -770 365 0
360 770 -365 0
-360 -771 366 0
360 771 -366 0
-360 -772 367 0
360 772 -367 0
-360 -773 368 0
360 773 -368 0
-360 -774 369 0
360 774 -369 0
-360 -775 370 0
360 775 -370 0
-360 -776 371 0
360 776 -371 0
-360 -777 372 0
360 777 -372 0
-360 -778 373 0
360 778 -373 0
-360 -779 374 0
360 779 -374 0
-360 -780 375 0
360 780 -375 0
-360 -781 376 0
360 781 -376 0
-360 -782 377 0
360 782 -377 0
-360 -783 378 0
360 783 -378 0
-360 -784 379 0
360 784 -379 0
-360 -785 380 0
360 785 -380 0
-360 -786 381 0
360 786 -381 0
-360 -787 382 0
360 787 -382 0
-360 -788 383 0
360 788 -383 0
-360 -789 384 0
360 789 -384 0
-360 -790 385 0
360 790 -385 0
-360 -791 386 0
360 791 -386 0
-360 -792 387 0
360 792 -387 0
-360 -793 388 0
360 793 -388 0
-360 -794 389 0
360 794 -389 0
-360 -795 390 0
360 795 -390 0
-360 -796 391 0
360 796 -391 0
-360 -797 392 0
360 797 -392 0
-360 -798 393 0
360 798 -393 0
-360 -799 394 0
360 799 -394 0
-360 -800 395 0
360 800 -395 0
-360 -801 396 0
360 801 -396 0
-361 -802 362 0
361 802 -362 0
-361 -803 363 0
361 803 -363 0
-361 -804 364 0
361 804 -364 0
-361 -805 365 0
361 805 -365 0
-361 -806 366 0
361 806 -366 0
-361 -807 367 0
361 807 -367 0
-361 -808 368 0
361 808 -368 0
-361 -809 369 0
361 809 -369 0
-361 -810 370 0
361 810 -370 0
-361 -811 371 0
361 811 -371 0
-361 -812 372 0
361 812 -372 0
-361 -813 373 0
361 813 -373 0
-361 -814 374 0
361 814 -374 0
-361 -815 375 0
361 815 -375 0
-361 -816 376 0
361 816 -376 0
-361 -817 377 0
361 817 -377 0
-361 -818 378 0
361 818 -378 0
-361 -819 379 0
361 819 -379 0
-361 -820 380 0
361 820 -380 0
-361 -821 381 0
361 821 -381 0
-361 -822 382 0
361 822 -382 0
-361 -823 383 0
361 823 -383 0
-361 -824 384 0
361 824 -384 0
-361 -825 385 0
361 825 -385 0
-361 -826 386 0
361 826 -386 0
-361 -827 387 0
361 827 -387 0
-361 -828 388 0
361 828 -388 0
-361 -829 389 0
361 829 -389 0
-361 -830 390 0
361 830 -390 0
-361 -831 391 0
361 831 -391 0
-361 -832 392 0
361 832 -392 0
-361 -833 393 0
361 833 -393 0
-361 -834 394 0
361 834 -394 0
-361 -835 395 0
361 835 -395 0
-361 -836 396 0
361 836 -396 0
-362 -837 363 0
362 837 -363 0
-362 -838 364 0
362 838 -364 0
-362 -839 365 0
362 839 -365 0
-362 -840 366 0
362 840 -366 0
-362 -841 367 0
362 841 -367 0
-362 -842 368 0
362 842 -368 0
-362 -843 369 0
362 843 -369 0
-362 -844 370 0
362 844 -370 0
-362 -845 371 0
362 845 -371 0
-362 -846 372 0
362 846 -372 0
-362 -847 373 0
362 847 -373 0
-362 -848 374 0
362 848 -374 0
-362 -849 375 0
362 849 -375 0
-362 -850 376 0
362 850 -376 0
-362 -851 377 0
362 851 -377 0
-362 -852 378 0
362 852 -378 0
-362 -853 379 0
362 853 -379 0
-362 -854 380 0
362 854 -380 0
-362 -855 381 0
362 855 -381 0
-362 -856 382 0
362 856 -382 0
-362 -857 383 0
362 857 -383 0
-362 -858 384 0
362 858 -384 0
-362 -859 385 0
362 859 -385 0
-362 -860 386 0
362 860 -386 0
-362 -861 387 0
362 861 -387 0
-362 -862 388 0
362 862 -388 0
-362 -863 389 0
362 863 -389 0
-362 -864 390 0
362 864 -390 0
-362 -865 391 0
362 865 -391 0
-362 -866 392 0
362 866 -392 0
-362 -867 393 0
362 867 -393 0
-362 -868 394 0
362 868 -394 0
-362 -869 395 0
362 869 -395 0
-362 -870 396 0
362 870 -396 0
-363 -871 364 0
363 871 -364 0
-363 -872 365 0
363 872 -365 0
-363 -873 366 0
363 873 -366 0
-363 -874 367 0
363 874 -367 0
-363 -875 368 0
363 875 -368 0
-363 -876 369 0
363 876 -369 0
-363 -877 370 0
363 877 -370 0
-363 -878 371 0
363 878 -371 0
-363 -879 372 0
363 879 -372 0
-363 -880 373 0
363 880 -373 0
-363 -881 374 0
363 881 -374 0
-363 -882 375 0
363 882 -375 0
-363 -883 376 0
363 883 -376 0
-363 -884 377 0
363 884 -377 0
-363 -885 378 0
363 885 -378 0
-363 -886 379 0
363 886 -379 0
-363 -887 380 0
363 887 -380 0
-363 -888 381 0
363 888 -381 0
-363 -889 382 0
363 889 -382 0
-363 -890 383 0
363 890 -383 0
-363 -891 384 0
363 891 -384 0
-363 -892 385 0
363 892 -385 0
-363 -893 386 0
363 893 -386 0
-363 -894 387 0
363 894 -387 0
-363 -895 388 0
363 895 -388 0
-363 -896 389 0
363 896 -389 0
-363 -897 390 0
363 897 -390 0
-363 -898 391 0
363 898 -391 0
-363 -899 392 0
363 899 -392 0
-363 -900 393 0
363 900 -393 0
-363 -901 394 0
363 901 -394 0
-363 -902 395 0
363 902 -395 0
-363 -903 396 0
363 903 -396 0
-364 -904 365 0
364 904 -365 0
-364 -905 366 0
364 905 -366 0
-364 -906 367 0
364 906 -367 0
-364 -907 368 0
364 907 -368 0
-364 -908 369 0
364 908 -369 0
-364 -909 370 0
364 909 -370 0
-364 -910 371 0
364 910 -371 0
-364 -911 372 0
364 911 -372 0
-364 -912 373 0
364 912 -373 0
-364 -913 374 0
364 913 -374 0
-364 -914 375 0
364 914 -375 0
-364 -915 376 0
364 915 -376 0
-364 -916 377 0
364 916 -377 0
-364 -917 378 0
364 917 -378 0
-364 -918 379 0
364 918 -379 0
-364 -919 380 0
364 919 -380 0
-364 -920 381 0
364 920 -381 0
-364 -921 382 0
364 921 -382 0
-364 -922 383 0
364 922 -383 0
-364 -923 384 0
364 923 -384 0
-364 -924 385 0
364 924 -385 0
-364 -925 386 0
364 925 -386 0
-364 -926 387 0
364 926 -387 0
-364 -927 388 0
364 927 -388 0
-364 -928 389 0
364 928 -389 0
-364 -929 390 0
364 929 -390 0
-364 -930 391 0
364 930 -391 0
-364 -931 392 0
364 931 -392 0
-364 -932 393 0
364 932 -393 0
-364 -933 394 0
364 933 -394 0
-364 -934 395 0
364 934 -395 0
-364 -935 396 0
364 935 -396 0
-365 -936 366 0
365 936 -366 0
-365 -937 367 0
365 937 -367 0
-365 -938 368 0
365 938 -368 0
-365 -939 369 0
365 939 -369 0
-365 -940 370 0
365 940 -370 0
-365 -941 371 0
365 941 -371 0
-365 -942 372 0
365 942 -372 0
-365 -943 373 0
365 943 -373 0
-365 -944 374 0
365 944 -374 0
-365 -945 375 0
365 945 -375 0
-365 -946 376 0
365 946 -376 0
-365 -947 377 0
365 947 -377 0
-365 -948 378 0
365 948 -378 0
-365 -949 379 0
365 949 -379 0
-365 -950 380 0
365 950 -380 0
-365 -951 381 0
365 951 -381 0
-365 -952 382 0
365 952 -382 0
-365 -953 383 0
365 953 -383 0
-365 -954 384 0
365 954 -384 0
-365 -955 385 0
365 955 -385 0
-365 -956 386 0
365 956 -386 0
-365 -957 387 0
365 957 -387 0
-365 -958 388 0
365 958 -388 0
-365 -959 389 0
365 959 -389 0
-365 -960 390 0
365 960 -390 0
-365 -961 391 0
365 961 -391 0
-365 -962 392 0
365 962 -392 0
-365 -963 393 0
365 963 -393 0
-365 -964 394 0
365 964 -394 0
-365 -965 395 0
365 965 -395 0
-365 -966 396 0
365 966 -396 0
-366 -967 367 0
366 967 -367 0
-366 -968 368 0
366 968 -368 0
-366 -969 369 0
366 969 -369 0
-366 -970 370 0
366 970 -370 0
-366 -971 371 0
366 971 -371 0
-366 -972 372 0
366 972 -372 0
-366 -973 373 0
366 973 -373 0
-366 -974 374 0
366 974 -374 0
-366 -975 375 0
366 975 -375 0
-366 -976 376 0
366 976 -376 0
-366 -977 377 0
366 977 -377 0
-366 -978 378 0
366 978 -378 0
-366 -979 379 0
366 979 -379 0
-366 -980 380 0
366 980 -380 0
-366 -981 381 0
366 981 -381 0
-366 -982 382 0
366 982 -382 0
-366 -983 383 0
366 983 -383 0
-366 -984 384 0
366 984 -384 0
-366 -985 385 0
366 985 -385 0
-366 -986 386 0
366 986 -386 0
-366 -987 387 0
366 987 -387 0
-366 -988 388 0
366 988 -388 0
-366 -989 389 0
366 989 -389 0
-366 -990 390 0
366 990 -390 0
-366 -991 391 0
366 991 -391 0
-366 -992 392 0
366 992 -392 0
-366 -993 393 0
366 993 -393 0
-366 -994 394 0
366 994 -394 0
-366 -995 395 0
366 995 -395 0
-366 -996 396 0
366 996 -396 0
-367 -997 368 0
367 997 -368 0
-367 -998 369 0
367 998 -369 0
-367 -999 370 0
367 999 -370 0
-367 -1000 371 0
367 1000 -371 0
-367 -1001 372 0
367 1001 -372 0
-367 -1002 373 0
367 1002 -373 0
-367 -1003 374 0
367 1003 -374 0
-367 -1004 375 0
367 1004 -375 0
-367 -1005 376 0
367 1005 -376 0
-367 -1006 377 0
367 1006 -377 0
-367 -1007 378 0
367 1007 -378 0
-367 -1008 379 0
367 1008 -379 0
-367 -1009 380 0
367 1009 -380 0
-367 -1010 381 0
367 1010 -381 0
-367 -1011 382 0
367 1011 -382 0
-367 -1012 383 0
367 1012 -383 0
-367 -1013 384 0
367 1013 -384 0
-367 -1014 385 0
367 1014 -385 0
-367 -1015 386 0
367 1015 -386 0
-367 -1016 387 0
367 1016 -387 0
-367 -1017 388 0
367 1017 -388 0
-367 -1018 389 0
367 1018 -389 0
-367 -1019 390 0
367 1019 -390 0
-367 -1020 391 0
367 1020 -391 0
-367 -1021 392 0
367 1021 -392 0
-367 -1022 393 0
367 1022 -393 0
-367 -1023 394 0
367 1023 -394 0
-367 -1024 395 0
367 1024 -395 0
-367 -1025 396 0
367 1025 -396 0
-368 -1026 369 0
368 1026 -369 0
-368 -1027 370 0
368 1027 -370 0
-368 -1028 371 0
368 1028 -371 0
-368 -1029 372 0
368 1029 -372 0
-368 -1030 373 0
368 1030 -373 0
-368 -1031 374 0
368 1031 -374 0
-368 -1032 375 0
368 1032 -375 0
-368 -1033 376 0
368 1033 -376 0
-368 -1034 377 0
368 1034 -377 0
-368 -1035 378 0
368 1035 -378 0
-368 -1036 379 0
368 1036 -379 0
-368 -1037 380 0
368 1037 -380 0
-368 -1038 381 0
368 1038 -381 0
-368 -1039 382 0
368 1039 -382 0
-368 -1040 383 0
368 1040 -383 0
-368 -1041 384 0
368 1041 -384 0
-368 -1042 385 0
368 1042 -385 0
-368 -1043 386 0
368 1043 -386 0
-368 -1044 387 0
368 1044 -387 0
-368 -1045 388 0
368 1045 -388 0
-368 -1046 389 0
368 1046 -389 0
-368 -1047 390 0
368 1047 -390 0
-368 -1048 391 0
368 1048 -391 0
-368 -1049 392 0
368 1049 -392 0
-368 -1050 393 0
368 1050 -393 0
-368 -1051 394 0
368 1051 -394 0
-368 -1052 395 0
368 1052 -395 0
-368 -1053 396 0
368 1053 -396 0
-369 -1054 370 0
369 1054 -370 0
-369 -1055 371 0
369 1055 -371 0
-369 -1056 372 0
369 1056 -372 0
-369 -1057 373 0
369 1057 -373 0
-369 -1058 374 0
369 1058 -374 0
-369 -1059 375 0
369 1059 -375 0
-369 -1060 376 0
369 1060 -376 0
-369 -1061 377 0
369 1061 -377 0
-369 -1062 378 0
369 1062 -378 0
-369 -1063 379 0
369 1063 -379 0
-369 -1064 380 0
369 1064 -380 0
-369 -1065 381 0
369 1065 -381 0
-369 -1066 382 0
369 1066 -382 0
-369 -1067 383 0
369 1067 -383 0
-369 -1068 384 0
369 1068 -384 0
-369 -1069 385 0
369 1069 -385 0
-369 -1070 386 0
369 1070 -386 0
-369 -1071 387 0
369 1071 -387 0
-369 -1072 388 0
369 1072 -388 0
-369 -1073 389 0
369 1073 -389 0
-369 -1074 390 0
369 1074 -390 0
-369 -1075 391 0
369 1075 -391 0
-369 -1076 392 0
369 1076 -392 0
-369 -1077 393 0
369 1077 -393 0
-369 -1078 394 0
369 1078 -394 0
-369 -1079 395 0
369 1079 -395 0
-369 -1080 396 0
369 1080 -396 0
-370 -1081 371 0
370 1081 -371 0
-370 -1082 372 0
370 1082 -372 0
-370 -1083 373 0
370 1083 -373 0
-370 -1084 374 0
370 1084 -374 0
-370 -1085 375 0
370 1085 -375 0
-370 -1086 376 0
370 1086 -376 0
-370 -1087 377 0
370 1087 -377 0
-370 -1088 378 0
370 1088 -378 0
-370 -1089 379 0
370 1089 -379 0
-370 -1090 380 0
370 1090 -380 0
-370 -1091 381 0
370 1091 -381 0
-370 -1092 382 0
370 1092 -382 0
-370 -1093 383 0
370 1093 -383 0
-370 -1094 384 0
370 1094 -384 0
-370 -1095 385 0
370 1095 -385 0
-370 -1096 386 0
370 1096 -386 0
-370 -1097 387 0
370 1097 -387 0
-370 -1098 388 0
370 1098 -388 0
-370 -1099 389 0
370 1099 -389 0
-370 -1100 390 0
370 1100 -390 0
-370 -1101 391 0
370 1101 -391 0
-370 -1102 392 0
370 1102 -392 0
-370 -1103 393 0
370 1103 -393 0
-370 -1104 394 0
370 1104 -394 0
-370 -1105 395 0
370 1105 -395 0
-370 -1106 396 0
370 1106 -396 0
-371 -1107 372 0
371 1107 -372 0
-371 -1108 373 0
371 1108 -373 0
-371 -1109 374 0
371 1109 -374 0
-371 -1110 375 0
371 1110 -375 0
-371 -1111 376 0
371 1111 -376 0
-371 -1112 377 0
371 1112 -377 0
-371 -1113 378 0
371 1113 -378 0
-371 -1114 379 0
371 1114 -379 0
-371 -1115 380 0
371 1115 -380 0
-371 -1116 381 0
371 1116 -381 0
-371 -1117 382 0
371 1117 -382 0
-371 -1118 383 0
371 1118 -383 0
-371 -1119 384 0
371 1119 -384 0
-371 -1120 385 0
371 1120 -385 0
-371 -1121 386 0
371 1121 -386 0
-371 -1122 387 0
371 1122 -387 0
-371 -1123 388 0
371 1123 -388 0
-371 -1124 389 0
371 1124 -389 0
-371 -1125 390 0
371 1125 -390 0
-371 -1126 391 0
371 1126 -391 0
-371 -1127 392 0
371 1127 -392 0
-371 -1128 393 0
371 1128 -393 0
-371 -1129 394 0
371 1129 -394 0
-371 -1130 395 0
371 1130 -395 0
-371 -1131 396 0
371 1131 -396 0
-372 -1132 373 0
372 1132 -373 0
-372 -1133 374 0
372 1133 -374 0
-372 -1134 375 0
372 1134 -375 0
-372 -1135 376 0
372 1135 -376 0
-372 -1136 377 0
372 1136 -377 0
-372 -1137 378 0
372 1137 -378 0
-372 -1138 379 0
372 1138 -379 0
-372 -1139 380 0
372 1139 -380 0
-372 -1140 381 0
372 1140 -381 0
-372 -1141 382 0
372 1141 -382 0
-372 -1142 383 0
372 1142 -383 0
-372 -1143 384 0
372 1143 -384 0
-372 -1144 385 0
372 1144 -385 0
-372 -1145 386 0
372 1145 -386 0
-372 -1146 387 0
372 1146 -387 0
-372 -1147 388 0
372 1147 -388 0
-372 -1148 389 0
372 1148 -389 0
-372 -1149 390 0
372 1149 -390 0
-372 -1150 391 0
372 1150 -391 0
-372 -1151 392 0
372 1151 -392 0
-372 -1152 393 0
372 1152 -393 0
-372 -1153 394 0
372 1153 -394 0
-372 -1154 395 0
372 1154 -395 0
-372 -1155 396 0
372 1155 -396 0
-373 -1156 374 0
373 1156 -374 0
-373 -1157 375 0
373 1157 -375 0
-373 -1158 376 0
373 1158 -376 0
-373 -1159 377 0
373 1159 -377 0
-373 -1160 378 0
373 1160 -378 0
-373 -1161 379 0
373 1161 -379 0
-373 -1162 380 0
373 1162 -380 0
-373 -1163 381 0
373 1163 -381 0
-373 -1164 382 0
373 1164 -382 0
-373 -1165 383 0
373 1165 -383 0
-373 -1166 384 0
373 1166 -384 0
-373 -1167 385 0
373 1167 -385 0
-373 -1168 386 0
373 1168 -386 0
-373 -1169 387 0
373 1169 -387 0
-373 -1170 388 0
373 1170 -388 0
-373 -1171 389 0
373 1171 -389 0
-373 -1172 390 0
373 1172 -390 0
-373 -1173 391 0
373 1173 -391 0
-373 -1174 392 0
373 1174 -392 0
-373 -1175 393 0
373 1175 -393 0
-373 -1176 394 0
373 1176 -394 0
-373 -1177 395 0
373 1177 -395 0
-373 -1178 396 0
373 1178 -396 0
-374 -1179 375 0
374 1179 -375 0
-374 -1180 376 0
374 1180 -376 0
-374 -1181 377 0
374 1181 -377 0
-374 -1182 378 0
374 1182 -378 0
-374 -1183 379 0
374 1183 -379 0
-374 -1184 380 0
374 1184 -380 0
-374 -1185 381 0
374 1185 -381 0
-374 -1186 382 0
374 1186 -382 0
-374 -1187 383 0
374 1187 -383 0
-374 -1188 384 0
374 1188 -384 0
-374 -1189 385 0
374 1189 -385 0
-374 -1190 386 0
374 1190 -386 0
-374 -1191 387 0
374 1191 -387 0
-374 -1192 388 0
374 1192 -388 0
-374 -1193 389 0
374 1193 -389 0
-374 -1194 390 0
374 1194 -390 0
-374 -1195 391 0
374 1195 -391 0
-374 -1196 392 0
374 1196 -392 0
-374 -1197 393 0
374 1197 -393 0
-374 -1198 394 0
374 1198 -394 0
-374 -1199 395 0
374 1199 -395 0
-374 -1200 396 0
374 1200 -396 0
-375 -1201 376 0
375 1201 -376 0
-375 -1202 377 0
375 1202 -377 0
-375 -1203 378 0
375 1203 -378 0
-375 -1204 379 0
375 1204 -379 0
-375 -1205 380 0
375 1205 -380 0
-375 -1206 381 0
375 1206 -381 0
-375 -1207 382 0
375 1207 -382 0
-375 -1208 383 0
375 1208 -383 0
-375 -1209 384 0
375 1209 -384 0
-375 -1210 385 0
375 1210 -385 0
-375 -1211 386 0
375 1211 -386 0
-375 -1212 387 0
375 1212 -387 0
-375 -1213 388 0
375 1213 -388 0
-375 -1214 389 0
375 1214 -389 0
-375 -1215 390 0
375 1215 -390 0
-375 -1216 391 0
375 1216 -391 0
-375 -1217 392 0
375 1217 -392 0
-375 -1218 393 0
375 1218 -393 0
-375 -1219 394 0
375 1219 -394 0
-375 -1220 395 0
375 1220 -395 0
-375 -1221 396 0
375 1221 -396 0
-376 -1222 377 0
376 1222 -377 0
-376 -1223 378 0
376 1223 -378 0
-376 -1224 379 0
376 1224 -379 0
-376 -1225 380 0
376 1225 -380 0
-376 -1226 381 0
376 1226 -381 0
-376 -1227 382 0
376 1227 -382 0
-376 -1228 383 0
376 1228 -383 0
-376 -1229 384 0
376 1229 -384 0
-376 -1230 385 0
376 1230 -385 0
-376 -1231 386 0
376 1231 -386 0
-376 -1232 387 0
376 1232 -387 0
-376 -1233 388 0
376 1233 -388 0
-376 -1234 389 0
376 1234 -389 0
-376 -1235 390 0
376 1235 -390 0
-376 -1236 391 0
376 1236 -391 0
-376 -1237 392 0
376 1237 -392 0
-376 -1238 393 0
376 1238 -393 0
-376 -1239 394 0
376 1239 -394 0
-376 -1240 395 0
376 1240 -395 0
-376 -1241 396 0
376 1241 -396 0
-377 -1242 378 0
377 1242 -378 0
-377 -1243 379 0
377 1243 -379 0
-377 -1244 380 0
377 1244 -380 0
-377 -1245 381 0
377 1245 -381 0
-377 -1246 382 0
377 1246 -382 0
-377 -1247 383 0
377 1247 -383 0
-377 -1248 384 0
377 1248 -384 0
-377 -1249 385 0
377 1249 -385 0
-377 -1250 386 0
377 1250 -386 0
-377 -1251 387 0
377 1251 -387 0
-377 -1252 388 0
377 1252 -388 0
-377 -1253 389 0
377 1253 -389 0
-377 -1254 390 0
377 1254 -390 0
-377 -1255 391 0
377 1255 -391 0
-377 -1256 392 0
377 1256 -392 0
-377 -1257 393 0
377 1257 -393 0
-377 -1258 394 0
377 1258 -394 0
-377 -1259 395 0
377 1259 -395 0
-377 -1260 396 0
377 1260 -396 0
-378 -1261 379 0
378 1261 -379 0
-378 -1262 380 0
378 1262 -380 0
-378 -1263 381 0
378 1263 -381 0
-378 -1264 382 0
378 1264 -382 0
-378 -1265 383 0
378 1265 -383 0
-378 -1266 384 0
378 1266 -384 0
-378 -1267 385 0
378 1267 -385 0
-378 -1268 386 0
378 1268 -386 0
-378 -1269 387 0
378 1269 -387 0
-378 -1270 388 0
378 1270 -388 0
-378 -1271 389 0
378 1271 -389 0
-378 -1272 390 0
378 1272 -390 0
-378 -1273 391 0
378 1273 -391 0
-378 -1274 392 0
378 1274 -392 0
-378 -1275 393 0
378 1275 -393 0
-378 -1276 394 0
378 1276 -394 0
-378 -1277 395 0
378 1277 -395 0
-378 -1278 396 0
378 1278 -396 0
-379 -1279 380 0
379 1279 -380 0
-379 -1280 381 0
379 1280 -381 0
-379 -1281 382 0
379 1281 -382 0
-379 -1282 383 0
379 1282 -383 0
-379 -1283 384 0
379 1283 -384 0
-379 -1284 385 0
379 1284 -385 0
-379 -1285 386 0
379 1285 -386 0
-379 -1286 387 0
379 1286 -387 0
-379 -1287 388 0
379 1287 -388 0
-379 -1288 389 0
379 1288 -389 0
-379 -1289 390 0
379 1289 -390 0
-379 -1290 391 0
379 1290 -391 0
-379 -1291 392 0
379 1291 -392 0
-379 -1292 393 0
379 1292 -393 0
-379 -1293 394 0
379 1293 -394 0
-379 -1294 395 0
379 1294 -395 0
-379 -1295 396 0
379 1295 -396 0
-380 -1296 381 0
380 1296 -381 0
-380 -1297 382 0
380 1297 -382 0
-380 -1298 383 0
380 1298 -383 0
-380 -1299 384 0
380 1299 -384 0
-380 -1300 385 0
380 1300 -385 0
-380 -1301 386 0
380 1301 -386 0
-380 -1302 387 0
380 1302 -387 0
-380 -1303 388 0
380 1303 -388 0
-380 -1304 389 0
380 1304 -389 0
-380 -1305 390 0
380 1305 -390 0
-380 -1306 391 0
380 1306 -391 0
-380 -1307 392 0
380 1307 -392 0
-380 -1308 393 0
380 1308 -393 0
-380 -1309 394 0
380 1309 -394 0
-380 -1310 395 0
380 1310 -395 0
-380 -1311 396 0
380 1311 -396 0
-381 -1312 382 0
381 1312 -382 0
-381 -1313 383 0
381 1313 -383 0
-381 -1314 384 0
381 1314 -384 0
-381 -1315 385 0
381 1315 -385 0
-381 -1316 386 0
381 1316 -386 0
-381 -1317 387 0
381 1317 -387 0
-381 -1318 388 0
381 1318 -388 0
-381 -1319 389 0
381 1319 -389 0
-381 -1320 390 0
381 1320 -390 0
-381 -1321 391 0
381 1321 -391 0
-381 -1322 392 0
381 1322 -392 0
-381 -1323 393 0
381 1323 -393 0
-381 -1324 394 0
381 1324 -394 0
-381 -1325 395 0
381 1325 -395 0
-381 -1326 396 0
381 1326 -396 0
-382 -1327 383 0
382 1327 -383 0
-382 -1328 384 0
382 1328 -384 0
-382 -1329 385 0
382 1329 -385 0
-382 -1330 386 0
382 1330 -386 0
-382 -1331 387 0
382 1331 -387 0
-382 -1332 388 0
382 1332 -388 0
-382 -1333 389 0
382 1333 -389 0
-382 -1334 390 0
382 1334 -390 0
-382 -1335 391 0
382 1335 -391 0
-382 -1336 392 0
382 1336 -392 0
-382 -1337 393 0
382 1337 -393 0
-382 -1338 394 0
382 1338 -394 0
-382 -1339 395 0
382 1339 -395 0
-382 -1340 396 0
382 1340 -396 0
-383 -1341 384 0
383 1341 -384 0
-383 -1342 385 0
383 1342 -385 0
-383 -1343 386 0
383 1343 -386 0
-383 -1344 387 0
383 1344 -387 0
-383 -1345 388 0
383 1345 -388 0
-383 -1346 389 0
383 1346 -389 0
-383 -1347 390 0
383 1347 -390 0
-383 -1348 391 0
383 1348 -391 0
-383 -1349 392 0
383 1349 -392 0
-383 -1350 393 0
383 1350 -393 0
-383 -1351 394 0
383 1351 -394 0
-383 -1352 395 0
383 1352 -395 0
-383 -1353 396 0
383 1353 -396 0
-384 -1354 385 0
384 1354 -385 0
-384 -1355 386 0
384 1355 -386 0
-384 -1356 387 0
384 1356 -387 0
-384 -1357 388 0
384 1357 -388 0
-384 -1358 389 0
384 1358 -389 0
-384 -1359 390 0
384 1359 -390 0
-384 -1360 391 0
384 1360 -391 0
-384 -1361 392 0
384 1361 -392 0
-384 -1362 393 0
384 1362 -393 0
-384 -1363 394 0
384 1363 -394 0
-384 -1364 395 0
384 1364 -395 0
-384 -1365 396 0
384 1365 -396 0
-385 -1366 386 0
385 1366 -386 0
-385 -1367 387 0
385 1367 -387 0
-385 -1368 388 0
385 1368 -388 0
-385 -1369 389 0
385 1369 -389 0
-385 -1370 390 0
385 1370 -390 0
-385 -1371 391 0
385 1371 -391 0
-385 -1372 392 0
385 1372 -392 0
-385 -1373 393 0
385 1373 -393 0
-385 -1374 394 0
385 1374 -394 0
-385 -1375 395 0
385 1375 -395 0
-385 -1376 396 0
385 1376 -396 0
-386 -1377 387 0
386 1377 -387 0
-386 -1378 388 0
386 1378 -388 0
-386 -1379 389 0
386 1379 -389 0
-386 -1380 390 0
386 1380 -390 0
-386 -1381 391 0
386 1381 -391 0
-386 -1382 392 0
386 1382 -392 0
-386 -1383 393 0
386 1383 -393 0
-386 -1384 394 0
386 1384 -394 0
-386 -1385 395 0
386 1385 -395 0
-386 -1386 396 0
386 1386 -396 0
-387 -1387 388 0
387 1387 -388 0
-387 -1388 389 0
387 1388 -389 0
-387 -1389 390 0
387 1389 -390 0
-387 -1390 391 0
387 1390 -391 0
-387 -1391 392 0
387 1391 -392 0
-387 -1392 393 0
387 1392 -393 0
-387 -1393 394 0
387 1393 -394 0
-387 -1394 395 0
387 1394 -395 0
-387 -1395 396 0
387 1395 -396 0
-388 -1396 389 0
388 1396 -389 0
-388 -1397 390 0
388 1397 -390 0
-388 -1398 391 0
388 1398 -391 0
-388 -1399 392 0
388 1399 -392 0
-388 -1400 393 0
388 1400 -393 0
-388 -1401 394 0
388 1401 -394 0
-388 -1402 395 0
388 1402 -395 0
-388 -1403 396 0
388 1403 -396 0
-389 -1404 390 0
389 1404 -390 0
-389 -1405 391 0
389 1405 -391 0
-389 -1406 392 0
389 1406 -392 0
-389 -1407 393 0
389 1407 -393 0
-389 -1408 394 0
389 1408 -394 0
-389 -1409 395 0
389 1409 -395 0
-389 -1410 396 0
389 1410 -396 0
-390 -1411 391 0
390 1411 -391 0
-390 -1412 392 0
390 1412 -392 0
-390 -1413 393 0
390 1413 -393 0
-390 -1414 394 0
390 1414 -394 0
-390 -1415 395 0
390 1415 -395 0
-390 -1416 396 0
390 1416 -396 0
-391 -1417 392 0
391 1417 -392 0
-391 -1418 393 0
391 1418 -393 0
-391 -1419 394 0
391 1419 -394 0
-391 -1420 395 0
391 1420 -395 0
-391 -1421 396 0
391 1421 -396 0
-392 -1422 393 0
392 1422 -393 0
-392 -1423 394 0
392 1423 -394 0
-392 -1424 395 0
392 1424 -395 0
-392 -1425 396 0
392 1425 -396 0
-393 -1426 394 0
393 1426 -394 0
-393 -1427 395 0
393 1427 -395 0
-393 -1428 396 0
393 1428 -396 0
-394 -1429 395 0
394 1429 -395 0
-394 -1430 396 0
394 1430 -396 0
-395 -1431 396 0
395 1431 -396 0
-397 -442 398 0
397 442 -398 0
-397 -443 399 0
397 443 -399 0
-397 -444 400 0
397 444 -400 0
-397 -445 401 0
397 445 -401 0
-397 -446 402 0
397 446 -402 0
-397 -447 403 0
397 447 -403 0
-397 -448 404 0
397 448 -404 0
-397 -449 405 0
397 449 -405 0
-397 -450 406 0
397 450 -406 0
-397 -451 407 0
397 451 -407 0
-397 -452 408 0
397 452 -408 0
-397 -453 409 0
397 453 -409 0
-397 -454 410 0
397 454 -410 0
-397 -455 411 0
397 455 -411 0
-397 -456 412 0
397 456 -412 0
-397 -457 413 0
397 457 -413 0
-397 -458 414 0
397 458 -414 0
-397 -459 415 0
397 459 -415 0
-397 -460 416 0
397 460 -416 0
-397 -461 417 0
397 461 -417 0
-397 -462 418 0
397 462 -418 0
-397 -463 419 0
397 463 -419 0
-397 -464 420 0
397 464 -420 0
-397 -465 421 0
397 465 -421 0
-397 -466 422 0
397 466 -422 0
-397 -467 423 0
397 467 -423 0
-397 -468 424 0
397 468 -424 0
-397 -469 425 0
397 469 -425 0
-397 -470 426 0
397 470 -426 0
-397 -471 427 0
397 471 -427 0
-397 -472 428 0
397 472 -428 0
-397 -473 429 0
397 473 -429 0
-397 -474 430 0
397 474 -430 0
-397 -475 431 0
397 475 -431 0
-397 -476 432 0
397 476 -432 0
-397 -477 433 0
397 477 -433 0
-397 -478 434 0
397 478 -434 0
-397 -479 435 0
397 479 -435 0
-397 -480 436 0
397 480 -436 0
-397 -481 437 0
397 481 -437 0
-397 -482 438 0
397 482 -438 0
-397 -483 439 0
397 483 -439 0
-397 -484 440 0
397 484 -440 0
-397 -485 441 0
397 485 -441 0
-398 -486 399 0
398 486 -399 0
-398 -487 400 0
398 487 -400 0
-398 -488 401 0
398 488 -401 0
-398 -489 402 0
398 489 -402 0
-398 -490 403 0
398 490 -403 0
-398 -491 404 0
398 491 -404 0
-398 -492 405 0
398 492 -405 0
-398 -493 406 0
398 493 -406 0
-398 -494 407 0
398 494 -407 0
-398 -495 408 0
398 495 -408 0
-398 -496 409 0
398 496 -409 0
-398 -497 410 0
398 497 -410 0
-398 -498 411 0
398 498 -411 0
-398 -499 412 0
398 499 -412 0
-398 -500 413 0
398 500 -413 0
-398 -501 414 0
398 501 -414 0
-398 -502 415 0
398 502 -415 0
-398 -503 416 0
398 503 -416 0
-398 -504 417 0
398 504 -417 0
-398 -505 418 0
398 505 -418 0
-398 -506 419 0
398 506 -419 0
-398 -507 420 0
398 507 -420 0
-398 -508 421 0
398 508 -421 0
-398 -509 422 0
398 509 -422 0
-398 -510 423 0
398 510 -423 0
-398 -511 424 0
398 511 -424 0
-398 -512 425 0
398 512 -425 0
-398 -513 426 0
398 513 -426 0
-398 -514 427 0
398 514 -427 0
-398 -515 428 0
398 515 -428 0
-398 -516 429 0
398 516 -429 0
-398 -517 430 0
398 517 -430 0
-398 -518 431 0
398 518 -431 0
-398 -519 432 0
398 519 -432 0
-398 -520 433 0
398 520 -433 0
-398 -521 434 0
398 521 -434 0
-398 -522 435 0
398 522 -435 0
-398 -523 436 0
398 523 -436 0
-398 -524 437 0
398 524 -437 0
-398 -525 438 0
398 525 -438 0
-398 -526 439 0
398 526 -439 0
-398 -527 440 0
398 527 -440 0
-398 -528 441 0
398 528 -441 0
-399 -529 400 0
399 529 -400 0
-399 -530 401 0
399 530 -401 0
-399 -531 402 0
399 531 -402 0
-399 -532 403 0
399 532 -403 0
-399 -533 404 0
399 533 -404 0
-399 -534 405 0
399 534 -405 0
-399 -535 406 0
399 535 -406 0
-399 -536 407 0
399 536 -407 0
-399 -537 408 0
399 537 -408 0
-399 -538 409 0
399 538 -409 0
-399 -539 410 0
399 539 -410 0
-399 -540 411 0
399 540 -411 0
-399 -541 412 0
399 541 -412 0
-399 -542 413 0
399 542 -413 0
-399 -543 414 0
399 543 -414 0
-399 -544 415 0
399 544 -415 0
-399 -545 416 0
399 545 -416 0
-399 -546 417 0
399 546 -417 0
-399 -547 418 0
399 547 -418 0
-399 -548 419 0
399 548 -419 0
-399 -549 420 0
399 549 -420 0
-399 -550 421 0
399 550 -421 0
-399 -551 422 0
399 551 -422 0
-399 -552 423 0
399 552 -423 0
-399 -553 424 0
399 553 -424 0
-399 -554 425 0
399 554 -425 0
-399 -555 426 0
399 555 -426 0
-399 -556 427 0
399 556 -427 0
-399 -557 428 0
399 557 -428 0
-399 -558 429 0
399 558 -429 0
-399 -559 430 0
399 559 -430 0
-399 -560 431 0
399 560 -431 0
-399 -561 432 0
399 561 -432 0
-399 -562 433 0
399 562 -433 0
-399 -563 434 0
399 563 -434 0
-399 -564 435 0
399 564 -435 0
-399 -565 436 0
399 565 -436 0
-399 -566 437 0
399 566 -437 0
-399 -567 438 0
399 567 -438 0
-399 -568 439 0
399 568 -439 0
-399 -569 440 0
399 569 -440 0
-399 -570 441 0
399 570 -441 0
-400 -571 401 0
400 571 -401 0
-400 -572 402 0
400 572 -402 0
-400 -573 403 0
400 573 -403 0
-400 -574 404 0
400 574 -404 0
-400 -575 405 0
400 575 -405 0
-400 -576 406 0
400 576 -406 0
-400 -577 407 0
400 577 -407 0
-400 -578 408 0
400 578 -408 0
-400 -579 409 0
400 579 -409 0
-400 -580 410 0
400 580 -410 0
-400 -581 411 0
400 581 -411 0
-400 -582 412 0
400 582 -412 0
-400 -583 413 0
400 583 -413 0
-400 -584 414 0
400 584 -414 0
-400 -585 415 0
400 585 -415 0
-400 -586 416 0
400 586 -416 0
-400 -587 417 0
400 587 -417 0
-400 -588 418 0
400 588 -418 0
-400 -589 419 0
400 589 -419 0
-400 -590 420 0
400 590 -420 0
-400 -591 421 0
400 591 -421 0
-400 -592 422 0
400 592 -422 0
-400 -593 423 0
400 593 -423 0
-400 -594 424 0
400 594 -424 0
-400 -595 425 0
400 595 -425 0
-400 -596 426 0
400 596 -426 0
-400 -597 427 0
400 597 -427 0
-400 -598 428 0
400 598 -428 0
-400 -599 429 0
400 599 -429 0
-400 -600 430 0
400 600 -430 0
-400 -601 431 0
400 601 -431 0
-400 -602 432 0
400 602 -432 0
-400 -603 433 0
400 603 -433 0
-400 -604 434 0
400 604 -434 0
-400 -605 435 0
400 605 -435 0
-400 -606 436 0
400 606 -436 0
-400 -607 437 0
400 607 -437 0
-400 -608 438 0
400 608 -438 0
-400 -609 439 0
400 609 -439 0
-400 -610 440 0
400 610 -440 0
-400 -611 441 0
400 611 -441 0
-401 -612 402 0
401 612 -402 0
-401 -613 403 0
401 613 -403 0
-401 -614 404 0
401 614 -404 0
-401 -615 405 0
401 615 -405 0
-401 -616 406 0
401 616 -406 0
-401 -617 407 0
401 617 -407 0
-401 -618 408 0
401 618 -408 0
-401 -619 409 0
401 619 -409 0
-401 -620 410 0
401 620 -410 0
-401 -621 411 0
401 621 -411 0
-401 -622 412 0
401 622 -412 0
-401 -623 413 0
401 623 -413 0
-401 -624 414 0
401 624 -414 0
-401 -625 415 0
401 625 -415 0
-401 -626 416 0
401 626 -416 0
-401 -627 417 0
401 627 -417 0
-401 -628 418 0
401 628 -418 0
-401 -629 419 0
401 629 -419 0
-401 -630 420 0
401 630 -420 0
-401 -631 421 0
401 631 -421 0
-401 -632 422 0
401 632 -422 0
-401 -633 423 0
401 633 -423 0
-401 -634 424 0
401 634 -424 0
-401 -635 425 0
401 635 -425 0
-401 -636 426 0
401 636 -426 0
-401 -637 427 0
401 637 -427 0
-401 -638 428 0
401 638 -428 0
-401 -639 429 0
401 639 -429 0
-401 -640 430 0
401 640 -430 0
-401 -641 431 0
401 641 -431 0
-401 -642 432 0
401 642 -432 0
-401 -643 433 0
401 643 -433 0
-401 -644 434 0
401 644 -434 0
-401 -645 435 0
401 645 -435 0
-401 -646 436 0
401 646 -436 0
-401 -647 437 0
401 647 -437 0
-401 -648 438 0
401 648 -438 0
-401 -649 439 0
401 649 -439 0
-401 -650 440 0
401 650 -440 0
-401 -651 441 0
401 651 -441 0
-402 -652 403 0
402 652 -403 0
-402 -653 404 0
402 653 -404 0
-402 -654 405 0
402 654 -405 0
-402 -655 406 0
402 655 -406 0
-402 -656 407 0
402 656 -407 0
-402 -657 408 0
402 657 -408 0
-402 -658 409 0
402 658 -409 0
-402 -659 410 0
402 659 -410 0
-402 -660 411 0
402 660 -411 0
-402 -661 412 0
402 661 -412 0
-402 -662 413 0
402 662 -413 0
-402 -663 414 0
402 663 -414 0
-402 -664 415 0
402 664 -415 0
-402 -665 416 0
402 665 -416 0
-402 -666 417 0
402 666 -417 0
-402 -667 418 0
402 667 -418 0
-402 -668 419 0
402 668 -419 0
-402 -669 420 0
402 669 -420 0
-402 -670 421 0
402 670 -421 0
-402 -671 422 0
402 671 -422 0
-402 -672 423 0
402 672 -423 0
-402 -673 424 0
402 673 -424 0
-402 -674 425 0
402 674 -425 0
-402 -675 426 0
402 675 -426 0
-402 -676 427 0
402 676 -427 0
-402 -677 428 0
402 677 -428 0
-402 -678 429 0
402 678 -429 0
-402 -679 430 0
402 679 -430 0
-402 -680 431 0
402 680 -431 0
-402 -681 432 0
402 681 -432 0
-402 -682 433 0
402 682 -433 0
-402 -683 434 0
402 683 -434 0
-402 -684 435 0
402 684 -435 0
-402 -685 436 0
402 685 -436 0
-402 -686 437 0
402 686 -437 0
-402 -687 438 0
402 687 -438 0
-402 -688 439 0
402 688 -439 0
-402 -689 440 0
402 689 -440 0
-402 -690 441 0
402 690 -441 0
-403 -691 404 0
403 691 -404 0
-403 -692 405 0
403 692 -405 0
-403 -693 406 0
403 693 -406 0
-403 -694 407 0
403 694 -407 0
-403 -695 408 0
403 695 -408 0
-403 -696 409 0
403 696 -409 0
-403 -697 410 0
403 697 -410 0
-403 -698 411 0
403 698 -411 0
-403 -699 412 0
403 699 -412 0
-403 -700 413 0
403 700 -413 0
-403 -701 414 0
403 701 -414 0
-403 -702 415 0
403 702 -415 0
-403 -703 416 0
403 703 -416 0
-403 -704 417 0
403 704 -417 0
-403 -705 418 0
403 705 -418 0
-403 -706 419 0
403 706 -419 0
-403 -707 420 0
403 707 -420 0
-403 -708 421 0
403 708 -421 0
-403 -709 422 0
403 709 -422 0
-403 -710 423 0
403 710 -423 0
-403 -711 424 0
403 711 -424 0
-403 -712 425 0
403 712 -425 0
-403 -713 426 0
403 713 -426 0
-403 -714 427 0
403 714 -427 0
-403 -715 428 0
403 715 -428 0
-403 -716 429 0
403 716 -429 0
-403 -717 430 0
403 717 -430 0
-403 -718 431 0
403 718 -431 0
-403 -719 432 0
403 719 -432 0
-403 -720 433 0
403 720 -433 0
-403 -721 434 0
403 721 -434 0
-403 -722 435 0
403 722 -435 0
-403 -723 436 0
403 723 -436 0
-403 -724 437 0
403 724 -437 0
-403 -725 438 0
403 725 -438 0
-403 -726 439 0
403 726 -439 0
-403 -727 440 0
403 727 -440 0
-403 -728 441 0
403 728 -441 0
-404 -729 405 0
404 729 -405 0
-404 -730 406 0
404 730 -406 0
-404 -731 407 0
404 731 -407 0
-404 -732 408 0
404 732 -408 0
-404 -733 409 0
404 733 -409 0
-404 -734 410 0
404 734 -410 0
-404 -735 411 0
404 735 -411 0
-404 -736 412 0
404 736 -412 0
-404 -737 413 0
404 737 -413 0
-404 -738 414 0
404 738 -414 0
-404 -739 415 0
404 739 -415 0
-404 -740 416 0
404 740 -416 0
-404 -741 417 0
404 741 -417 0
-404 -742 418 0
404 742 -418 0
-404 -743 419 0
404 743 -419 0
-404 -744 420 0
404 744 -420 0
-404 -745 421 0
404 745 -421 0
-404 -746 422 0
404 746 -422 0
-404 -747 423 0
404 747 -423 0
-404 -748 424 0
404 748 -424 0
-404 -749 425 0
404 749 -425 0
-404 -750 426 0
404 750 -426 0
-404 -751 427 0
404 751 -427 0
-404 -752 428 0
404 752 -428 0
-404 -753 429 0
404 753 -429 0
-404 -754 430 0
404 754 -430 0
-404 -755 431 0
404 755 -431 0
-404 -756 432 0
404 756 -432 0
-404 -757 433 0
404 757 -433 0
-404 -758 434 0
404 758 -434 0
-404 -759 435 0
404 759 -435 0
-404 -760 436 0
404 760 -436 0
-404 -761 437 0
404 761 -437 0
-404 -762 438 0
404 762 -438 0
-404 -763 439 0
404 763 -439 0
-404 -764 440 0
404 764 -440 0
-404 -765 441 0
404 765 -441 0
-405 -766 406 0
405 766 -406 0
-405 -767 407 0
405 767 -407 0
-405 -768 408 0
405 768 -408 0
-405 -769 409 0
405 769 -409 0
-405 -770 410 0
405 770 -410 0
-405 -771 411 0
405 771 -411 0
-405 -772 412 0
405 772 -412 0
-405 -773 413 0
405 773 -413 0
-405 -774 414 0
405 774 -414 0
-405 -775 415 0
405 775 -415 0
-405 -776 416 0
405 776 -416 0
-405 -777 417 0
405 777 -417 0
-405 -778 418 0
405 778 -418 0
-405 -779 419 0
405 779 -419 0
-405 -780 420 0
405 780 -420 0
-405 -781 421 0
405 781 -421 0
-405 -782 422 0
405 782 -422 0
-405 -783 423 0
405 783 -423 0
-405 -784 424 0
405 784 -424 0
-405 -785 425 0
405 785 -425 0
-405 -786 426 0
405 786 -426 0
-405 -787 427 0
405 787 -427 0
-405 -788 428 0
405 788 -428 0
-405 -789 429 0
405 789 -429 0
-405 -790 430 0
405 790 -430 0
-405 -791 431 0
405 791 -431 0
-405 -792 432 0
405 792 -432 0
-405 -793 433 0
405 793 -433 0
-405 -794 434 0
405 794 -434 0
-405 -795 435 0
405 795 -435 0
-405 -796 436 0
405 796 -436 0
-405 -797 437 0
405 797 -437 0
-405 -798 438 0
405 798 -438 0
-405 -799 439 0
405 799 -439 0
-405 -800 440 0
405 800 -440 0
-405 -801 441 0
405 801 -441 0
-406 -802 407 0
406 802 -407 0
-406 -803 408 0
406 803 -408 0
-406 -804 409 0
406 804 -409 0
-406 -805 410 0
406 805 -410 0
-406 -806 411 0
406 806 -411 0
-406 -807 412 0
406 807 -412 0
-406 -808 413 0
406 808 -413 0
-406 -809 414 0
406 809 -414 0
-406 -810 415 0
406 810 -415 0
-406 -811 416 0
406 811 -416 0
-406 -812 417 0
406 812 -417 0
-406 -813 418 0
406 813 -418 0
-406 -814 419 0
406 814 -419 0
-406 -815 420 0
406 815 -420 0
-406 -816 421 0
406 816 -421 0
-406 -817 422 0
406 817 -422 0
-406 -818 423 0
406 818 -423 0
-406 -819 424 0
406 819 -424 0
-406 -820 425 0
406 820 -425 0
-406 -821 426 0
406 821 -426 0
-406 -822 427 0
406 822 -427 0
-406 -823 428 0
406 823 -428 0
-406 -824 429 0
406 824 -429 0
-406 -825 430 0
406 825 -430 0
-406 -826 431 0
406 826 -431 0
-406 -827 432 0
406 827 -432 0
-406 -828 433 0
406 828 -433 0
-406 -829 434 0
406 829 -434 0
-406 -830 435 0
406 830 -435 0
-406 -831 436 0
406 831 -436 0
-406 -832 437 0
406 832 -437 0
-406 -833 438 0
406 833 -438 0
-406 -834 439 0
406 834 -439 0
-406 -835 440 0
406 835 -440 0
-406 -836 441 0
406 836 -441 0
-407 -837 408 0
407 837 -408 0
-407 -838 409 0
407 838 -409 0
-407 -839 410 0
407 839 -410 0
-407 -840 411 0
407 840 -411 0
-407 -841 412 0
407 841 -412 0
-407 -842 413 0
407 842 -413 0
-407 -843 414 0
407 843 -414 0
-407 -844 415 0
407 844 -415 0
-407 -845 416 0
407 845 -416 0
-407 -846 417 0
407 846 -417 0
-407 -847 418 0
407 847 -418 0
-407 -848 419 0
407 848 -419 0
-407 -849 420 0
407 849 -420 0
-407 -850 421 0
407 850 -421 0
-407 -851 422 0
407 851 -422 0
-407 -852 423 0
407 852 -423 0
-407 -853 424 0
407 853 -424 0
-407 -854 425 0
407 854 -425 0
-407 -855 426 0
407 855 -426 0
-407 -856 427 0
407 856 -427 0
-407 -857 428 0
407 857 -428 0
-407 -858 429 0
407 858 -429 0
-407 -859 430 0
407 859 -430 0
-407 -860 431 0
407 860 -431 0
-407 -861 432 0
407 861 -432 0
-407 -862 433 0
407 862 -433 0
-407 -863 434 0
407 863 -434 0
-407 -864 435 0
407 864 -435 0
-407 -865 436 0
407 865 -436 0
-407 -866 437 0
407 866 -437 0
-407 -867 438 0
407 867 -438 0
-407 -868 439 0
407 868 -439 0
-407 -869 440 0
407 869 -440 0
-407 -870 441 0
407 870 -441 0
-408 -871 409 0
408 871 -409 0
-408 -872 410 0
408 872 -410 0
-408 -873 411 0
408 873 -411 0
-408 -874 412 0
408 874 -412 0
-408 -875 413 0
408 875 -413 0
-408 -876 414 0
408 876 -414 0
-408 -877 415 0
408 877 -415 0
-408 -878 416 0
408 878 -416 0
-408 -879 417 0
408 879 -417 0
-408 -880 418 0
408 880 -418 0
-408 -881 419 0
408 881 -419 0
-408 -882 420 0
408 882 -420 0
-408 -883 421 0
408 883 -421 0
-408 -884 422 0
408 884 -422 0
-408 -885 423 0
408 885 -423 0
-408 -886 424 0
408 886 -424 0
-408 -887 425 0
408 887 -425 0
-408 -888 426 0
408 888 -426 0
-408 -889 427 0
408 889 -427 0
-408 -890 428 0
408 890 -428 0
-408 -891 429 0
408 891 -429 0
-408 -892 430 0
408 892 -430 0
-408 -893 431 0
408 893 -431 0
-408 -894 432 0
408 894 -432 0
-408 -895 433 0
408 895 -433 0
-408 -896 434 0
408 896 -434 0
-408 -897 435 0
408 897 -435 0
-408 -898 436 0
408 898 -436 0
-408 -899 437 0
408 899 -437 0
-408 -900 438 0
408 900 -438 0
-408 -901 439 0
408 901 -439 0
-408 -902 440 0
408 902 -440 0
-408 -903 441 0
408 903 -441 0
-409 -904 410 0
409 904 -410 0
-409 -905 411 0
409 905 -411 0
-409 -906 412 0
409 906 -412 0
-409 -907 413 0
409 907 -413 0
-409 -908 414 0
409 908 -414 0
-409 -909 415 0
409 909 -415 0
-409 -910 416 0
409 910 -416 0
-409 -911 417 0
409 911 -417 0
-409 -912 418 0
409 912 -418 0
-409 -913 419 0
409 913 -419 0
-409 -914 420 0
409 914 -420 0
-409 -915 421 0
409 915 -421 0
-409 -916 422 0
409 916 -422 0
-409 -917 423 0
409 917 -423 0
-409 -918 424 0
409 918 -424 0
-409 -919 425 0
409 919 -425 0
-409 -920 426 0
409 920 -426 0
-409 -921 427 0
409 921 -427 0
-409 -922 428 0
409 922 -428 0
-409 -923 429 0
409 923 -429 0
-409 -924 430 0
409 924 -430 0
-409 -925 431 0
409 925 -431 0
-409 -926 432 0
409 926 -432 0
-409 -927 433 0
409 927 -433 0
-409 -928 434 0
409 928 -434 0
-409 -929 435 0
409 929 -435 0
-409 -930 436 0
409 930 -436 0
-409 -931 437 0
409 931 -437 0
-409 -932 438 0
409 932 -438 0
-409 -933 439 0
409 933 -439 0
-409 -934 440 0
409 934 -440 0
-409 -935 441 0
409 935 -441 0
-410 -936 411 0
410 936 -411 0
-410 -937 412 0
410 937 -412 0
-410 -938 413 0
410 938 -413 0
-410 -939 414 0
410 939 -414 0
-410 -940 415 0
410 940 -415 0
-410 -941 416 0
410 941 -416 0
-410 -942 417 0
410 942 -417 0
-410 -943 418 0
410 943 -418 0
-410 -944 419 0
410 944 -419 0
-410 -945 420 0
410 945 -420 0
-410 -946 421 0
410 946 -421 0
-410 -947 422 0
410 947 -422 0
-410 -948 423 0
410 948 -423 0
-410 -949 424 0
410 949 -424 0
-410 -950 425 0
410 950 -425 0
-410 -951 426 0
410 951 -426 0
-410 -952 427 0
410 952 -427 0
-410 -953 428 0
410 953 -428 0
-410 -954 429 0
410 954 -429 0
-410 -955 430 0
410 955 -430 0
-410 -956 431 0
410 956 -431 0
-410 -957 432 0
410 957 -432 0
-410 -958 433 0
410 958 -433 0
-410 -959 434 0
410 959 -434 0
-410 -960 435 0
410 960 -435 0
-410 -961 436 0
410 961 -436 0
-410 -962 437 0
410 962 -437 0
-410 -963 438 0
410 963 -438 0
-410 -964 439 0
410 964 -439 0
-410 -965 440 0
410 965 -440 0
-410 -966 441 0
410 966 -441 0
-411 -967 412 0
411 967 -412 0
-411 -968 413 0
411 968 -413 0
-411 -969 414 0
411 969 -414 0
-411 -970 415 0
411 970 -415 0
-411 -971 416 0
411 971 -416 0
-411 -972 417 0
411 972 -417 0
-411 -973 418 0
411 973 -418 0
-411 -974 419 0
411 974 -419 0
-411 -975 420 0
411 975 -420 0
-411 -976 421 0
411 976 -421 0
-411 -977 422 0
411 977 -422 0
-411 -978 423 0
411 978 -423 0
-411 -979 424 0
411 979 -424 0
-411 -980 425 0
411 980 -425 0
-411 -981 426 0
411 981 -426 0
-411 -982 427 0
411 982 -427 0
-411 -983 428 0
411 983 -428 0
-411 -984 429 0
411 984 -429 0
-411 -985 430 0
411 985 -430 0
-411 -986 431 0
411 986 -431 0
-411 -987 432 0
411 987 -432 0
-411 -988 433 0
411 988 -433 0
-411 -989 434 0
411 989 -434 0
-411 -990 435 0
411 990 -435 0
-411 -991 436 0
411 991 -436 0
-411 -992 437 0
411 992 -437 0
-411 -993 438 0
411 993 -438 0
-411 -994 439 0
411 994 -439 0
-411 -995 440 0
411 995 -440 0
-411 -996 441 0
411 996 -441 0
-412 -997 413 0
412 997 -413 0
-412 -998 414 0
412 998 -414 0
-412 -999 415 0
412 999 -415 0
-412 -1000 416 0
412 1000 -416 0
-412 -1001 417 0
412 1001 -417 0
-412 -1002 418 0
412 1002 -418 0
-412 -1003 419 0
412 1003 -419 0
-412 -1004 420 0
412 1004 -420 0
-412 -1005 421 0
412 1005 -421 0
-412 -1006 422 0
412 1006 -422 0
-412 -1007 423 0
412 1007 -423 0
-412 -1008 424 0
412 1008 -424 0
-412 -1009 425 0
412 1009 -425 0
-412 -1010 426 0
412 1010 -426 0
-412 -1011 427 0
412 1011 -427 0
-412 -1012 428 0
412 1012 -428 0
-412 -1013 429 0
412 1013 -429 0
-412 -1014 430 0
412 1014 -430 0
-412 -1015 431 0
412 1015 -431 0
-412 -1016 432 0
412 1016 -432 0
-412 -1017 433 0
412 1017 -433 0
-412 -1018 434 0
412 1018 -434 0
-412 -1019 435 0
412 1019 -435 0
-412 -1020 436 0
412 1020 -436 0
-412 -1021 437 0
412 1021 -437 0
-412 -1022 438 0
412 1022 -438 0
-412 -1023 439 0
412 1023 -439 0
-412 -1024 440 0
412 1024 -440 0
-412 -1025 441 0
412 1025 -441 0
-413 -1026 414 0
413 1026 -414 0
-413 -1027 415 0
413 1027 -415 0
-413 -1028 416 0
413 1028 -416 0
-413 -1029 417 0
413 1029 -417 0
-413 -1030 418 0
413 1030 -418 0
-413 -1031 419 0
413 1031 -419 0
-413 -1032 420 0
413 1032 -420 0
-413 -1033 421 0
413 1033 -421 0
-413 -1034 422 0
413 1034 -422 0
-413 -1035 423 0
413 1035 -423 0
-413 -1036 424 0
413 1036 -424 0
-413 -1037 425 0
413 1037 -425 0
-413 -1038 426 0
413 1038 -426 0
-413 -1039 427 0
413 1039 -427 0
-413 -1040 428 0
413 1040 -428 0
-413 -1041 429 0
413 1041 -429 0
-413 -1042 430 0
413 1042 -430 0
-413 -1043 431 0
413 1043 -431 0
-413 -1044 432 0
413 1044 -432 0
-413 -1045 433 0
413 1045 -433 0
-413 -1046 434 0
413 1046 -434 0
-413 -1047 435 0
413 1047 -435 0
-413 -1048 436 0
413 1048 -436 0
-413 -1049 437 0
413 1049 -437 0
-413 -1050 438 0
413 1050 -438 0
-413 -1051 439 0
413 1051 -439 0
-413 -1052 440 0
413 1052 -440 0
-413 -1053 441 0
413 1053 -441 0
-414 -1054 415 0
414 1054 -415 0
-414 -1055 416 0
414 1055 -416 0
-414 -1056 417 0
414 1056 -417 0
-414 -1057 418 0
414 1057 -418 0
-414 -1058 419 0
414 1058 -419 0
-414 -1059 420 0
414 1059 -420 0
-414 -1060 421 0
414 1060 -421 0
-414 -1061 422 0
414 1061 -422 0
-414 -1062 423 0
414 1062 -423 0
-414 -1063 424 0
414 1063 -424 0
-414 -1064 425 0
414 1064 -425 0
-414 -1065 426 0
414 1065 -426 0
-414 -1066 427 0
414 1066 -427 0
-414 -1067 428 0
414 1067 -428 0
-414 -1068 429 0
414 1068 -429 0
-414 -1069 430 0
414 1069 -430 0
-414 -1070 431 0
414 1070 -431 0
-414 -1071 432 0
414 1071 -432 0
-414 -1072 433 0
414 1072 -433 0
-414 -1073 434 0
414 1073 -434 0
-414 -1074 435 0
414 1074 -435 0
-414 -1075 436 0
414 1075 -436 0
-414 -1076 437 0
414 1076 -437 0
-414 -1077 438 0
414 1077 -438 0
-414 -1078 439 0
414 1078 -439 0
-414 -1079 440 0
414 1079 -440 0
-414 -1080 441 0
414 1080 -441 0
-415 -1081 416 0
415 1081 -416 0
-415 -1082 417 0
415 1082 -417 0
-415 -1083 418 0
415 1083 -418 0
-415 -1084 419 0
415 1084 -419 0
-415 -1085 420 0
415 1085 -420 0
-415 -1086 421 0
415 1086 -421 0
-415 -1087 422 0
415 1087 -422 0
-415 -1088 423 0
415 1088 -423 0
-415 -1089 424 0
415 1089 -424 0
-415 -1090 425 0
415 1090 -425 0
-415 -1091 426 0
415 1091 -426 0
-415 -1092 427 0
415 1092 -427 0
-415 -1093 428 0
415 1093 -428 0
-415 -1094 429 0
415 1094 -429 0
-415 -1095 430 0
415 1095 -430 0
-415 -1096 431 0
415 1096 -431 0
-415 -1097 432 0
415 1097 -432 0
-415 -1098 433 0
415 1098 -433 0
-415 -1099 434 0
415 1099 -434 0
-415 -1100 435 0
415 1100 -435 0
-415 -1101 436 0
415 1101 -436 0
-415 -1102 437 0
415 1102 -437 0
-415 -1103 438 0
415 1103 -438 0
-415 -1104 439 0
415 1104 -439 0
-415 -1105 440 0
415 1105 -440 0
-415 -1106 441 0
415 1106 -441 0
-416 -1107 417 0
416 1107 -417 0
-416 -1108 418 0
416 1108 -418 0
-416 -1109 419 0
416 1109 -419 0
-416 -1110 420 0
416 1110 -420 0
-416 -1111 421 0
416 1111 -421 0
-416 -1112 422 0
416 1112 -422 0
-416 -1113 423 0
416 1113 -423 0
-416 -1114 424 0
416 1114 -424 0
-416 -1115 425 0
416 1115 -425 0
-416 -1116 426 0
416 1116 -426 0
-416 -1117 427 0
416 1117 -427 0
-416 -1118 428 0
416 1118 -428 0
-416 -1119 429 0
416 1119 -429 0
-416 -1120 430 0
416 1120 -430 0
-416 -1121 431 0
416 1121 -431 0
-416 -1122 432 0
416 1122 -432 0
-416 -1123 433 0
416 1123 -433 0
-416 -1124 434 0
416 1124 -434 0
-416 -1125 435 0
416 1125 -435 0
-416 -1126 436 0
416 1126 -436 0
-416 -1127 437 0
416 1127 -437 0
-416 -1128 438 0
416 1128 -438 0
-416 -1129 439 0
416 1129 -439 0
-416 -1130 440 0
416 1130 -440 0
-416 -1131 441 0
416 1131 -441 0
-417 -1132 418 0
417 1132 -418 0
-417 -1133 419 0
417 1133 -419 0
-417 -1134 420 0
417 1134 -420 0
-417 -1135 421 0
417 1135 -421 0
-417 -1136 422 0
417 1136 -422 0
-417 -1137 423 0
417 1137 -423 0
-417 -1138 424 0
417 1138 -424 0
-417 -1139 425 0
417 1139 -425 0
-417 -1140 426 0
417 1140 -426 0
-417 -1141 427 0
417 1141 -427 0
-417 -1142 428 0
417 1142 -428 0
-417 -1143 429 0
417 1143 -429 0
-417 -1144 430 0
417 1144 -430 0
-417 -1145 431 0
417 1145 -431 0
-417 -1146 432 0
417 1146 -432 0
-417 -1147 433 0
417 1147 -433 0
-417 -1148 434 0
417 1148 -434 0
-417 -1149 435 0
417 1149 -435 0
-417 -1150 436 0
417 1150 -436 0
-417 -1151 437 0
417 1151 -437 0
-417 -1152 438 0
417 1152 -438 0
-417 -1153 439 0
417 1153 -439 0
-417 -1154 440 0
417 1154 -440 0
-417 -1155 441 0
417 1155 -441 0
-418 -1156 419 0
418 1156 -419 0
-418 -1157 420 0
418 1157 -420 0
-418 -1158 421 0
418 1158 -421 0
-418 -1159 422 0
418 1159 -422 0
-418 -1160 423 0
418 1160 -423 0
-418 -1161 424 0
418 1161 -424 0
-418 -1162 425 0
418 1162 -425 0
-418 -1163 426 0
418 1163 -426 0
-418 -1164 427 0
418 1164 -427 0
-418 -1165 428 0
418 1165 -428 0
-418 -1166 429 0
418 1166 -429 0
-418 -1167 430 0
418 1167 -430 0
-418 -1168 431 0
418 1168 -431 0
-418 -1169 432 0
418 1169 -432 0
-418 -1170 433 0
418 1170 -433 0
-418 -1171 434 0
418 1171 -434 0
-418 -1172 435 0
418 1172 -435 0
-418 -1173 436 0
418 1173 -436 0
-418 -1174 437 0
418 1174 -437 0
-418 -1175 438 0
418 1175 -438 0
-418 -1176 439 0
418 1176 -439 0
-418 -1177 440 0
418 1177 -440 0
-418 -1178 441 0
418 1178 -441 0
-419 -1179 420 0
419 1179 -420 0
-419 -1180 421 0
419 1180 -421 0
-419 -1181 422 0
419 1181 -422 0
-419 -1182 423 0
419 1182 -423 0
-419 -1183 424 0
419 1183 -424 0
-419 -1184 425 0
419 1184 -425 0
-419 -1185 426 0
419 1185 -426 0
-419 -1186 427 0
419 1186 -427 0
-419 -1187 428 0
419 1187 -428 0
-419 -1188 429 0
419 1188 -429 0
-419 -1189 430 0
419 1189 -430 0
-419 -1190 431 0
419 1190 -431 0
-419 -1191 432 0
419 1191 -432 0
-419 -1192 433 0
419 1192 -433 0
-419 -1193 434 0
419 1193 -434 0
-419 -1194 435 0
419 1194 -435 0
-419 -1195 436 0
419 1195 -436 0
-419 -1196 437 0
419 1196 -437 0
-419 -1197 438 0
419 1197 -438 0
-419 -1198 439 0
419 1198 -439 0
-419 -1199 440 0
419 1199 -440 0
-419 -1200 441 0
419 1200 -441 0
-420 -1201 421 0
420 1201 -421 0
-420 -1202 422 0
420 1202 -422 0
-420 -1203 423 0
420 1203 -423 0
-420 -1204 424 0
420 1204 -424 0
-420 -1205 425 0
420 1205 -425 0
-420 -1206 426 0
420 1206 -426 0
-420 -1207 427 0
420 1207 -427 0
-420 -1208 428 0
420 1208 -428 0
-420 -1209 429 0
420 1209 -429 0
-420 -1210 430 0
420 1210 -430 0
-420 -1211 431 0
420 1211 -431 0
-420 -1212 432 0
420 1212 -432 0
-420 -1213 433 0
420 1213 -433 0
-420 -1214 434 0
420 1214 -434 0
-420 -1215 435 0
420 1215 -435 0
-420 -1216 436 0
420 1216 -436 0
-420 -1217 437 0
420 1217 -437 0
-420 -1218 438 0
420 1218 -438 0
-420 -1219 439 0
420 1219 -439 0
-420 -1220 440 0
420 1220 -440 0
-420 -1221 441 0
420 1221 -441 0
-421 -1222 422 0
421 1222 -422 0
-421 -1223 423 0
421 1223 -423 0
-421 -1224 424 0
421 1224 -424 0
-421 -1225 425 0
421 1225 -425 0
-421 -1226 426 0
421 1226 -426 0
-421 -1227 427 0
421 1227 -427 0
-421 -1228 428 0
421 1228 -428 0
-421 -1229 429 0
421 1229 -429 0
-421 -1230 430 0
421 1230 -430 0
-421 -1231 431 0
421 1231 -431 0
-421 -1232 432 0
421 1232 -432 0
-421 -1233 433 0
421 1233 -433 0
-421 -1234 434 0
421 1234 -434 0
-421 -1235 435 0
421 1235 -435 0
-421 -1236 436 0
421 1236 -436 0
-421 -1237 437 0
421 1237 -437 0
-421 -1238 438 0
421 1238 -438 0
-421 -1239 439 0
421 1239 -439 0
-421 -1240 440 0
421 1240 -440 0
-421 -1241 441 0
421 1241 -441 0
-422 -1242 423 0
422 1242 -423 0
-422 -1243 424 0
422 1243 -424 0
-422 -1244 425 0
422 1244 -425 0
-422 -1245 426 0
422 1245 -426 0
-422 -1246 427 0
422 1246 -427 0
-422 -1247 428 0
422 1247 -428 0
-422 -1248 429 0
422 1248 -429 0
-422 -1249 430 0
422 1249 -430 0
-422 -1250 431 0
422 1250 -431 0
-422 -1251 432 0
422 1251 -432 0
-422 -1252 433 0
422 1252 -433 0
-422 -1253 434 0
422 1253 -434 0
-422 -1254 435 0
422 1254 -435 0
-422 -1255 436 0
422 1255 -436 0
-422 -1256 437 0
422 1256 -437 0
-422 -1257 438 0
422 1257 -438 0
-422 -1258 439 0
422 1258 -439 0
-422 -1259 440 0
422 1259 -440 0
-422 -1260 441 0
422 1260 -441 0
-423 -1261 424 0
423 1261 -424 0
-423 -1262 425 0
423 1262 -425 0
-423 -1263 426 0
423 1263 -426 0
-423 -1264 427 0
423 1264 -427 0
-423 -1265 428 0
423 1265 -428 0
-423 -1266 429 0
423 1266 -429 0
-423 -1267 430 0
423 1267 -430 0
-423 -1268 431 0
423 1268 -431 0
-423 -1269 432 0
423 1269 -432 0
-423 -1270 433 0
423 1270 -433 0
-423 -1271 434 0
423 1271 -434 0
-423 -1272 435 0
423 1272 -435 0
-423 -1273 436 0
423 1273 -436 0
-423 -1274 437 0
423 1274 -437 0
-423 -1275 438 0
423 1275 -438 0
-423 -1276 439 0
423 1276 -439 0
-423 -1277 440 0
423 1277 -440 0
-423 -1278 441 0
423 1278 -441 0
-424 -1279 425 0
424 1279 -425 0
-424 -1280 426 0
424 1280 -426 0
-424 -1281 427 0
424 1281 -427 0
-424 -1282 428 0
424 1282 -428 0
-424 -1283 429 0
424 1283 -429 0
-424 -1284 430 0
424 1284 -430 0
-424 -1285 431 0
424 1285 -431 0
-424 -1286 432 0
424 1286 -432 0
-424 -1287 433 0
424 1287 -433 0
-424 -1288 434 0
424 1288 -434 0
-424 -1289 435 0
424 1289 -435 0
-424 -1290 436 0
424 1290 -436 0
-424 -1291 437 0
424 1291 -437 0
-424 -1292 438 0
424 1292 -438 0
-424 -1293 439 0
424 1293 -439 0
-424 -1294 440 0
424 1294 -440 0
-424 -1295 441 0
424 1295 -441 0
-425 -1296 426 0
425 1296 -426 0
-425 -1297 427 0
425 1297 -427 0
-425 -1298 428 0
425 1298 -428 0
-425 -1299 429 0
425 1299 -429 0
-425 -1300 430 0
425 1300 -430 0
-425 -1301 431 0
425 1301 -431 0
-425 -1302 432 0
425 1302 -432 0
-425 -1303 433 0
425 1303 -433 0
-425 -1304 434 0
425 1304 -434 0
-425 -1305 435 0
425 1305 -435 0
-425 -1306 436 0
425 1306 -436 0
-425 -1307 437 0
425 1307 -437 0
-425 -1308 438 0
425 1308 -438 0
-425 -1309 439 0
425 1309 -439 0
-425 -1310 440 0
425 1310 -440 0
-425 -1311 441 0
425 1311 -441 0
-426 -1312 427 0
426 1312 -427 0
-426 -1313 428 0
426 1313 -428 0
-426 -1314 429 0
426 1314 -429 0
-426 -1315 430 0
426 1315 -430 0
-426 -1316 431 0
426 1316 -431 0
-426 -1317 432 0
426 1317 -432 0
-426 -1318 433 0
426 1318 -433 0
-426 -1319 434 0
426 1319 -434 0
-426 -1320 435 0
426 1320 -435 0
-426 -1321 436 0
426 1321 -436 0
-426 -1322 437 0
426 1322 -437 0
-426 -1323 438 0
426 1323 -438 0
-426 -1324 439 0
426 1324 -439 0
-426 -1325 440 0
426 1325 -440 0
-426 -1326 441 0
426 1326 -441 0
-427 -1327 428 0
427 1327 -428 0
-427 -1328 429 0
427 1328 -429 0
-427 -1329 430 0
427 1329 -430 0
-427 -1330 431 0
427 1330 -431 0
-427 -1331 432 0
427 1331 -432 0
-427 -1332 433 0
427 1332 -433 0
-427 -1333 434 0
427 1333 -434 0
-427 -1334 435 0
427 1334 -435 0
-427 -1335 436 0
427 1335 -436 0
-427 -1336 437 0
427 1336 -437 0
-427 -1337 438 0
427 1337 -438 0
-427 -1338 439 0
427 1338 -439 0
-427 -1339 440 0
427 1339 -440 0
-427 -1340 441 0
427 1340 -441 0
-428 -1341 429 0
428 1341 -429 0
-428 -1342 430 0
428 1342 -430 0
-428 -1343 431 0
428 1343 -431 0
-428 -1344 432 0
428 1344 -432 0
-428 -1345 433 0
428 1345 -433 0
-428 -1346 434 0
428 1346 -434 0
-428 -1347 435 0
428 1347 -435 0
-428 -1348 436 0
428 1348 -436 0
-428 -1349 437 0
428 1349 -437 0
-428 -1350 438 0
428 1350 -438 0
-428 -1351 439 0
428 1351 -439 0
-428 -1352 440 0
428 1352 -440 0
-428 -1353 441 0
428 1353 -441 0
-429 -1354 430 0
429 1354 -430 0
-429 -1355 431 0
429 1355 -431 0
-429 -1356 432 0
429 1356 -432 0
-429 -1357 433 0
429 1357 -433 0
-429 -1358 434 0
429 1358 -434 0
-429 -1359 435 0
429 1359 -435 0
-429 -1360 436 0
429 1360 -436 0
-429 -1361 437 0
429 1361 -437 0
-429 -1362 438 0
429 1362 -438 0
-429 -1363 439 0
429 1363 -439 0
-429 -1364 440 0
429 1364 -440 0
-429 -1365 441 0
429 1365 -441 0
-430 -1366 431 0
430 1366 -431 0
-430 -1367 432 0
430 1367 -432 0
-430 -1368 433 0
430 1368 -433 0
-430 -1369 434 0
430 1369 -434 0
-430 -1370 435 0
430 1370 -435 0
-430 -1371 436 0
430 1371 -436 0
-430 -1372 437 0
430 1372 -437 0
-430 -1373 438 0
430 1373 -438 0
-430 -1374 439 0
430 1374 -439 0
-430 -1375 440 0
430 1375 -440 0
-430 -1376 441 0
430 1376 -441 0
-431 -1377 432 0
431 1377 -432 0
-431 -1378 433 0
431 1378 -433 0
-431 -1379 434 0
431 1379 -434 0
-431 -1380 435 0
431 1380 -435 0
-431 -1381 436 0
431 1381 -436 0
-431 -1382 437 0
431 1382 -437 0
-431 -1383 438 0
431 1383 -438 0
-431 -1384 439 0
431 1384 -439 0
-431 -1385 440 0
431 1385 -440 0
-431 -1386 441 0
431 1386 -441 0
-432 -1387 433 0
432 1387 -433 0
-432 -1388 434 0
432 1388 -434 0
-432 -1389 435 0
432 1389 -435 0
-432 -1390 436 0
432 1390 -436 0
-432 -1391 437 0
432 1391 -437 0
-432 -1392 438 0
432 1392 -438 0
-432 -1393 439 0
432 1393 -439 0
-432 -1394 440 0
432 1394 -440 0
-432 -1395 441 0
432 1395 -441 0
-433 -1396 434 0
433 1396 -434 0
-433 -1397 435 0
433 1397 -435 0
-433 -1398 436 0
433 1398 -436 0
-433 -1399 437 0
433 1399 -437 0
-433 -1400 438 0
433 1400 -438 0
-433 -1401 439 0
433 1401 -439 0
-433 -1402 440 0
433 1402 -440 0
-433 -1403 441 0
433 1403 -441 0
-434 -1404 435 0
434 1404 -435 0
-434 -1405 436 0
434 1405 -436 0
-434 -1406 437 0
434 1406 -437 0
-434 -1407 438 0
434 1407 -438 0
-434 -1408 439 0
434 1408 -439 0
-434 -1409 440 0
434 1409 -440 0
-434 -1410 441 0
434 1410 -441 0
-435 -1411 436 0
435 1411 -436 0
-435 -1412 437 0
435 1412 -437 0
-435 -1413 438 0
435 1413 -438 0
-435 -1414 439 0
435 1414 -439 0
-435 -1415 440 0
435 1415 -440 0
-435 -1416 441 0
435 1416 -441 0
-436 -1417 437 0
436 1417 -437 0
-436 -1418 438 0
436 1418 -438 0
-436 -1419 439 0
436 1419 -439 0
-436 -1420 440 0
436 1420 -440 0
-436 -1421 441 0
436 1421 -441 0
-437 -1422 438 0
437 1422 -438 0
-437 -1423 439 0
437 1423 -439 0
-437 -1424 440 0
437 1424 -440 0
-437 -1425 441 0
437 1425 -441 0
-438 -1426 439 0
438 1426 -439 0
-438 -1427 440 0
438 1427 -440 0
-438 -1428 441 0
438 1428 -441 0
-439 -1429 440 0
439 1429 -440 0
-439 -1430 441 0
439 1430 -441 0
-440 -1431 441 0
440 1431 -441 0
-442 -486 443 0
442 486 -443 0
-442 -487 444 0
442 487 -444 0
-442 -488 445 0
442 488 -445 0
-442 -489 446 0
442 489 -446 0
-442 -490 447 0
442 490 -447 0
-442 -491 448 0
442 491 -448 0
-442 -492 449 0
442 492 -449 0
-442 -493 450 0
442 493 -450 0
-442 -494 451 0
442 494 -451 0
-442 -495 452 0
442 495 -452 0
-442 -496 453 0
442 496 -453 0
-442 -497 454 0
442 497 -454 0
-442 -498 455 0
442 498 -455 0
-442 -499 456 0
442 499 -456 0
-442 -500 457 0
442 500 -457 0
-442 -501 458 0
442 501 -458 0
-442 -502 459 0
442 502 -459 0
-442 -503 460 0
442 503 -460 0
-442 -504 461 0
442 504 -461 0
-442 -505 462 0
442 505 -462 0
-442 -506 463 0
442 506 -463 0
-442 -507 464 0
442 507 -464 0
-442 -508 465 0
442 508 -465 0
-442 -509 466 0
442 509 -466 0
-442 -510 467 0
442 510 -467 0
-442 -511 468 0
442 511 -468 0
-442 -512 469 0
442 512 -469 0
-442 -513 470 0
442 513 -470 0
-442 -514 471 0
442 514 -471 0
-442 -515 472 0
442 515 -472 0
-442 -516 473 0
442 516 -473 0
-442 -517 474 0
442 517 -474 0
-442 -518 475 0
442 518 -475 0
-442 -519 476 0
442 519 -476 0
-442 -520 477 0
442 520 -477 0
-442 -521 478 0
442 521 -478 0
-442 -522 479 0
442 522 -479 0
-442 -523 480 0
442 523 -480 0
-442 -524 481 0
442 524 -481 0
-442 -525 482 0
442 525 -482 0
-442 -526 483 0
442 526 -483 0
-442 -527 484 0
442 527 -484 0
-442 -528 485 0
442 528 -485 0
-443 -529 444 0
443 529 -444 0
-443 -530 445 0
443 530 -445 0
-443 -531 446 0
443 531 -446 0
-443 -532 447 0
443 532 -447 0
-443 -533 448 0
443 533 -448 0
-443 -534 449 0
443 534 -449 0
-443 -535 450 0
443 535 -450 0
-443 -536 451 0
443 536 -451 0
-443 -537 452 0
443 537 -452 0
-443 -538 453 0
443 538 -453 0
-443 -539 454 0
443 539 -454 0
-443 -540 455 0
443 540 -455 0
-443 -541 456 0
443 541 -456 0
-443 -542 457 0
443 542 -457 0
-443 -543 458 0
443 543 -458 0
-443 -544 459 0
443 544 -459 0
-443 -545 460 0
443 545 -460 0
-443 -546 461 0
443 546 -461 0
-443 -547 462 0
443 547 -462 0
-443 -548 463 0
443 548 -463 0
-443 -549 464 0
443 549 -464 0
-443 -550 465 0
443 550 -465 0
-443 -551 466 0
443 551 -466 0
-443 -552 467 0
443 552 -467 0
-443 -553 468 0
443 553 -468 0
-443 -554 469 0
443 554 -469 0
-443 -555 470 0
443 555 -470 0
-443 -556 471 0
443 556 -471 0
-443 -557 472 0
443 557 -472 0
-443 -558 473 0
443 558 -473 0
-443 -559 474 0
443 559 -474 0
-443 -560 475 0
443 560 -475 0
-443 -561 476 0
443 561 -476 0
-443 -562 477 0
443 562 -477 0
-443 -563 478 0
443 563 -478 0
-443 -564 479 0
443 564 -479 0
-443 -565 480 0
443 565 -480 0
-443 -566 481 0
443 566 -481 0
-443 -567 482 0
443 567 -482 0
-443 -568 483 0
443 568 -483 0
-443 -569 484 0
443 569 -484 0
-443 -570 485 0
443 570 -485 0
-444 -571 445 0
444 571 -445 0
-444 -572 446 0
444 572 -446 0
-444 -573 447 0
444 573 -447 0
-444 -574 448 0
444 574 -448 0
-444 -575 449 0
444 575 -449 0
-444 -576 450 0
444 576 -450 0
-444 -577 451 0
444 577 -451 0
-444 -578 452 0
444 578 -452 0
-444 -579 453 0
444 579 -453 0
-444 -580 454 0
444 580 -454 0
-444 -581 455 0
444 581 -455 0
-444 -582 456 0
444 582 -456 0
-444 -583 457 0
444 583 -457 0
-444 -584 458 0
444 584 -458 0
-444 -585 459 0
444 585 -459 0
-444 -586 460 0
444 586 -460 0
-444 -587 461 0
444 587 -461 0
-444 -588 462 0
444 588 -462 0
-444 -589 463 0
444 589 -463 0
-444 -590 464 0
444 590 -464 0
-444 -591 465 0
444 591 -465 0
-444 -592 466 0
444 592 -466 0
-444 -593 467 0
444 593 -467 0
-444 -594 468 0
444 594 -468 0
-444 -595 469 0
444 595 -469 0
-444 -596 470 0
444 596 -470 0
-444 -597 471 0
444 597 -471 0
-444 -598 472 0
444 598 -472 0
-444 -599 473 0
444 599 -473 0
-444 -600 474 0
444 600 -474 0
-444 -601 475 0
444 601 -475 0
-444 -602 476 0
444 602 -476 0
-444 -603 477 0
444 603 -477 0
-444 -604 478 0
444 604 -478 0
-444 -605 479 0
444 605 -479 0
-444 -606 480 0
444 606 -480 0
-444 -607 481 0
444 607 -481 0
-444 -608 482 0
444 608 -482 0
-444 -609 483 0
444 609 -483 0
-444 -610 484 0
444 610 -484 0
-444 -611 485 0
444 611 -485 0
-445 -612 446 0
445 612 -446 0
-445 -613 447 0
445 613 -447 0
-445 -614 448 0
445 614 -448 0
-445 -615 449 0
445 615 -449 0
-445 -616 450 0
445 616 -450 0
-445 -617 451 0
445 617 -451 0
-445 -618 452 0
445 618 -452 0
-445 -619 453 0
445 619 -453 0
-445 -620 454 0
445 620 -454 0
-445 -621 455 0
445 621 -455 0
-445 -622 456 0
445 622 -456 0
-445 -623 457 0
445 623 -457 0
-445 -624 458 0
445 624 -458 0
-445 -625 459 0
445 625 -459 0
-445 -626 460 0
445 626 -460 0
-445 -627 461 0
445 627 -461 0
-445 -628 462 0
445 628 -462 0
-445 -629 463 0
445 629 -463 0
-445 -630 464 0
445 630 -464 0
-445 -631 465 0
445 631 -465 0
-445 -632 466 0
445 632 -466 0
-445 -633 467 0
445 633 -467 0
-445 -634 468 0
445 634 -468 0
-445 -635 469 0
445 635 -469 0
-445 -636 470 0
445 636 -470 0
-445 -637 471 0
445 637 -471 0
-445 -638 472 0
445 638 -472 0
-445 -639 473 0
445 639 -473 0
-445 -640 474 0
445 640 -474 0
-445 -641 475 0
445 641 -475 0
-445 -642 476 0
445 642 -476 0
-445 -643 477 0
445 643 -477 0
-445 -644 478 0
445 644 -478 0
-445 -645 479 0
445 645 -479 0
-445 -646 480 0
445 646 -480 0
-445 -647 481 0
445 647 -481 0
-445 -648 482 0
445 648 -482 0
-445 -649 483 0
445 649 -483 0
-445 -650 484 0
445 650 -484 0
-445 -651 485 0
445 651 -485 0
-446 -652 447 0
446 652 -447 0
-446 -653 448 0
446 653 -448 0
-446 -654 449 0
446 654 -449 0
-446 -655 450 0
446 655 -450 0
-446 -656 451 0
446 656 -451 0
-446 -657 452 0
446 657 -452 0
-446 -658 453 0
446 658 -453 0
-446 -659 454 0
446 659 -454 0
-446 -660 455 0
446 660 -455 0
-446 -661 456 0
446 661 -456 0
-446 -662 457 0
446 662 -457 0
-446 -663 458 0
446 663 -458 0
-446 -664 459 0
446 664 -459 0
-446 -665 460 0
446 665 -460 0
-446 -666 461 0
446 666 -461 0
-446 -667 462 0
446 667 -462 0
-446 -668 463 0
446 668 -463 0
-446 -669 464 0
446 669 -464 0
-446 -670 465 0
446 670 -465 0
-446 -671 466 0
446 671 -466 0
-446 -672 467 0
446 672 -467 0
-446 -673 468 0
446 673 -468 0
-446 -674 469 0
446 674 -469 0
-446 -675 470 0
446 675 -470 0
-446 -676 471 0
446 676 -471 0
-446 -677 472 0
446 677 -472 0
-446 -678 473 0
446 678 -473 0
-446 -679 474 0
446 679 -474 0
-446 -680 475 0
446 680 -475 0
-446 -681 476 0
446 681 -476 0
-446 -682 477 0
446 682 -477 0
-446 -683 478 0
446 683 -478 0
-446 -684 479 0
446 684 -479 0
-446 -685 480 0
446 685 -480 0
-446 -686 481 0
446 686 -481 0
-446 -687 482 0
446 687 -482 0
-446 -688 483 0
446 688 -483 0
-446 -689 484 0
446 689 -484 0
-446 -690 485 0
446 690 -485 0
-447 -691 448 0
447 691 -448 0
-447 -692 449 0
447 692 -449 0
-447 -693 450 0
447 693 -450 0
-447 -694 451 0
447 694 -451 0
-447 -695 452 0
447 695 -452 0
-447 -696 453 0
447 696 -453 0
-447 -697 454 0
447 697 -454 0
-447 -698 455 0
447 698 -455 0
-447 -699 456 0
447 699 -456 0
-447 -700 457 0
447 700 -457 0
-447 -701 458 0
447 701 -458 0
-447 -702 459 0
447 702 -459 0
-447 -703 460 0
447 703 -460 0
-447 -704 461 0
447 704 -461 0
-447 -705 462 0
447 705 -462 0
-447 -706 463 0
447 706 -463 0
-447 -707 464 0
447 707 -464 0
-447 -708 465 0
447 708 -465 0
-447 -709 466 0
447 709 -466 0
-447 -710 467 0
447 710 -467 0
-447 -711 468 0
447 711 -468 0
-447 -712 469 0
447 712 -469 0
-447 -713 470 0
447 713 -470 0
-447 -714 471 0
447 714 -471 0
-447 -715 472 0
447 715 -472 0
-447 -716 473 0
447 716 -473 0
-447 -717 474 0
447 717 -474 0
-447 -718 475 0
447 718 -475 0
-447 -719 476 0
447 719 -476 0
-447 -720 477 0
447 720 -477 0
-447 -721 478 0
447 721 -478 0
-447 -722 479 0
447 722 -479 0
-447 -723 480 0
447 723 -480 0
-447 -724 481 0
447 724 -481 0
-447 -725 482 0
447 725 -482 0
-447 -726 483 0
447 726 -483 0
-447 -727 484 0
447 727 -484 0
-447 -728 485 0
447 728 -485 0
-448 -729 449 0
448 729 -449 0
-448 -730 450 0
448 730 -450 0
-448 -731 451 0
448 731 -451 0
-448 -732 452 0
448 732 -452 0
-448 -733 453 0
448 733 -453 0
-448 -734 454 0
448 734 -454 0
-448 -735 455 0
448 735 -455 0
-448 -736 456 0
448 736 -456 0
-448 -737 457 0
448 737 -457 0
-448 -738 458 0
448 738 -458 0
-448 -739 459 0
448 739 -459 0
-448 -740 460 0
448 740 -460 0
-448 -741 461 0
448 741 -461 0
-448 -742 462 0
448 742 -462 0
-448 -743 463 0
448 743 -463 0
-448 -744 464 0
448 744 -464 0
-448 -745 465 0
448 745 -465 0
-448 -746 466 0
448 746 -466 0
-448 -747 467 0
448 747 -467 0
-448 -748 468 0
448 748 -468 0
-448 -749 469 0
448 749 -469 0
-448 -750 470 0
448 750 -470 0
-448 -751 471 0
448 751 -471 0
-448 -752 472 0
448 752 -472 0
-448 -753 473 0
448 753 -473 0
-448 -754 474 0
448 754 -474 0
-448 -755 475 0
448 755 -475 0
-448 -756 476 0
448 756 -476 0
-448 -757 477 0
448 757 -477 0
-448 -758 478 0
448 758 -478 0
-448 -759 479 0
448 759 -479 0
-448 -760 480 0
448 760 -480 0
-448 -761 481 0
448 761 -481 0
-448 -762 482 0
448 762 -482 0
-448 -763 483 0
448 763 -483 0
-448 -764 484 0
448 764 -484 0
-448 -765 485 0
448 765 -485 0
-449 -766 450 0
449 766 -450 0
-449 -767 451 0
449 767 -451 0
-449 -768 452 0
449 768 -452 0
-449 -769 453 0
449 769 -453 0
-449 -770 454 0
449 770 -454 0
-449 -771 455 0
449 771 -455 0
-449 -772 456 0
449 772 -456 0
-449 -773 457 0
449 773 -457 0
-449 -774 458 0
449 774 -458 0
-449 -775 459 0
449 775 -459 0
-449 -776 460 0
449 776 -460 0
-449 -777 461 0
449 777 -461 0
-449 -778 462 0
449 778 -462 0
-449 -779 463 0
449 779 -463 0
-449 -780 464 0
449 780 -464 0
-449 -781 465 0
449 781 -465 0
-449 -782 466 0
449 782 -466 0
-449 -783 467 0
449 783 -467 0
-449 -784 468 0
449 784 -468 0
-449 -785 469 0
449 785 -469 0
-449 -786 470 0
449 786 -470 0
-449 -787 471 0
449 787 -471 0
-449 -788 472 0
449 788 -472 0
-449 -789 473 0
449 789 -473 0
-449 -790 474 0
449 790 -474 0
-449 -791 475 0
449 791 -475 0
-449 -792 476 0
449 792 -476 0
-449 -793 477 0
449 793 -477 0
-449 -794 478 0
449 794 -478 0
-449 -795 479 0
449 795 -479 0
-449 -796 480 0
449 796 -480 0
-449 -797 481 0
449 797 -481 0
-449 -798 482 0
449 798 -482 0
-449 -799 483 0
449 799 -483 0
-449 -800 484 0
449 800 -484 0
-449 -801 485 0
449 801 -485 0
-450 -802 451 0
450 802 -451 0
-450 -803 452 0
450 803 -452 0
-450 -804 453 0
450 804 -453 0
-450 -805 454 0
450 805 -454 0
-450 -806 455 0
450 806 -455 0
-450 -807 456 0
450 807 -456 0
-450 -808 457 0
450 808 -457 0
-450 -809 458 0
450 809 -458 0
-450 -810 459 0
450 810 -459 0
-450 -811 460 0
450 811 -460 0
-450 -812 461 0
450 812 -461 0
-450 -813 462 0
450 813 -462 0
-450 -814 463 0
450 814 -463 0
-450 -815 464 0
450 815 -464 0
-450 -816 465 0
450 816 -465 0
-450 -817 466 0
450 817 -466 0
-450 -818 467 0
450 818 -467 0
-450 -819 468 0
450 819 -468 0
-450 -820 469 0
450 820 -469 0
-450 -821 470 0
450 821 -470 0
-450 -822 471 0
450 822 -471 0
-450 -823 472 0
450 823 -472 0
-450 -824 473 0
450 824 -473 0
-450 -825 474 0
450 825 -474 0
-450 -826 475 0
450 826 -475 0
-450 -827 476 0
450 827 -476 0
-450 -828 477 0
450 828 -477 0
-450 -829 478 0
450 829 -478 0
-450 -830 479 0
450 830 -479 0
-450 -831 480 0
450 831 -480 0
-450 -832 481 0
450 832 -481 0
-450 -833 482 0
450 833 -482 0
-450 -834 483 0
450 834 -483 0
-450 -835 484 0
450 835 -484 0
-450 -836 485 0
450 836 -485 0
-451 -837 452 0
451 837 -452 0
-451 -838 453 0
451 838 -453 0
-451 -839 454 0
451 839 -454 0
-451 -840 455 0
451 840 -455 0
-451 -841 456 0
451 841 -456 0
-451 -842 457 0
451 842 -457 0
-451 -843 458 0
451 843 -458 0
-451 -844 459 0
451 844 -459 0
-451 -845 460 0
451 845 -460 0
-451 -846 461 0
451 846 -461 0
-451 -847 462 0
451 847 -462 0
-451 -848 463 0
451 848 -463 0
-451 -849 464 0
451 849 -464 0
-451 -850 465 0
451 850 -465 0
-451 -851 466 0
451 851 -466 0
-451 -852 467 0
451 852 -467 0
-451 -853 468 0
451 853 -468 0
-451 -854 469 0
451 854 -469 0
-451 -855 470 0
451 855 -470 0
-451 -856 471 0
451 856 -471 0
-451 -857 472 0
451 857 -472 0
-451 -858 473 0
451 858 -473 0
-451 -859 474 0
451 859 -474 0
-451 -860 475 0
451 860 -475 0
-451 -861 476 0
451 861 -476 0
-451 -862 477 0
451 862 -477 0
-451 -863 478 0
451 863 -478 0
-451 -864 479 0
451 864 -479 0
-451 -865 480 0
451 865 -480 0
-451 -866 481 0
451 866 -481 0
-451 -867 482 0
451 867 -482 0
-451 -868 483 0
451 868 -483 0
-451 -869 484 0
451 869 -484 0
-451 -870 485 0
451 870 -485 0
-452 -871 453 0
452 871 -453 0
-452 -872 454 0
452 872 -454 0
-452 -873 455 0
452 873 -455 0
-452 -874 456 0
452 874 -456 0
-452 -875 457 0
452 875 -457 0
-452 -876 458 0
452 876 -458 0
-452 -877 459 0
452 877 -459 0
-452 -878 460 0
452 878 -460 0
-452 -879 461 0
452 879 -461 0
-452 -880 462 0
452 880 -462 0
-452 -881 463 0
452 881 -463 0
-452 -882 464 0
452 882 -464 0
-452 -883 465 0
452 883 -465 0
-452 -884 466 0
452 884 -466 0
-452 -885 467 0
452 885 -467 0
-452 -886 468 0
452 886 -468 0
-452 -887 469 0
452 887 -469 0
-452 -888 470 0
452 888 -470 0
-452 -889 471 0
452 889 -471 0
-452 -890 472 0
452 890 -472 0
-452 -891 473 0
452 891 -473 0
-452 -892 474 0
452 892 -474 0
-452 -893 475 0
452 893 -475 0
-452 -894 476 0
452 894 -476 0
-452 -895 477 0
452 895 -477 0
-452 -896 478 0
452 896 -478 0
-452 -897 479 0
452 897 -479 0
-452 -898 480 0
452 898 -480 0
-452 -899 481 0
452 899 -481 0
-452 -900 482 0
452 900 -482 0
-452 -901 483 0
452 901 -483 0
-452 -902 484 0
452 902 -484 0
-452 -903 485 0
452 903 -485 0
-453 -904 454 0
453 904 -454 0
-453 -905 455 0
453 905 -455 0
-453 -906 456 0
453 906 -456 0
-453 -907 457 0
453 907 -457 0
-453 -908 458 0
453 908 -458 0
-453 -909 459 0
453 909 -459 0
-453 -910 460 0
453 910 -460 0
-453 -911 461 0
453 911 -461 0
-453 -912 462 0
453 912 -462 0
-453 -913 463 0
453 913 -463 0
-453 -914 464 0
453 914 -464 0
-453 -915 465 0
453 915 -465 0
-453 -916 466 0
453 916 -466 0
-453 -917 467 0
453 917 -467 0
-453 -918 468 0
453 918 -468 0
-453 -919 469 0
453 919 -469 0
-453 -920 470 0
453 920 -470 0
-453 -921 471 0
453 921 -471 0
-453 -922 472 0
453 922 -472 0
-453 -923 473 0
453 923 -473 0
-453 -924 474 0
453 924 -474 0
-453 -925 475 0
453 925 -475 0
-453 -926 476 0
453 926 -476 0
-453 -927 477 0
453 927 -477 0
-453 -928 478 0
453 928 -478 0
-453 -929 479 0
453 929 -479 0
-453 -930 480 0
453 930 -480 0
-453 -931 481 0
453 931 -481 0
-453 -932 482 0
453 932 -482 0
-453 -933 483 0
453 933 -483 0
-453 -934 484 0
453 934 -484 0
-453 -935 485 0
453 935 -485 0
-454 -936 455 0
454 936 -455 0
-454 -937 456 0
454 937 -456 0
-454 -938 457 0
454 938 -457 0
-454 -939 458 0
454 939 -458 0
-454 -940 459 0
454 940 -459 0
-454 -941 460 0
454 941 -460 0
-454 -942 461 0
454 942 -461 0
-454 -943 462 0
454 943 -462 0
-454 -944 463 0
454 944 -463 0
-454 -945 464 0
454 945 -464 0
-454 -946 465 0
454 946 -465 0
-454 -947 466 0
454 947 -466 0
-454 -948 467 0
454 948 -467 0
-454 -949 468 0
454 949 -468 0
-454 -950 469 0
454 950 -469 0
-454 -951 470 0
454 951 -470 0
-454 -952 471 0
454 952 -471 0
-454 -953 472 0
454 953 -472 0
-454 -954 473 0
454 954 -473 0
-454 -955 474 0
454 955 -474 0
-454 -956 475 0
454 956 -475 0
-454 -957 476 0
454 957 -476 0
-454 -958 477 0
454 958 -477 0
-454 -959 478 0
454 959 -478 0
-454 -960 479 0
454 960 -479 0
-454 -961 480 0
454 961 -480 0
-454 -962 481 0
454 962 -481 0
-454 -963 482 0
454 963 -482 0
-454 -964 483 0
454 964 -483 0
-454 -965 484 0
454 965 -484 0
-454 -966 485 0
454 966 -485 0
-455 -967 456 0
455 967 -456 0
-455 -968 457 0
455 968 -457 0
-455 -969 458 0
455 969 -458 0
-455 -970 459 0
455 970 -459 0
-455 -971 460 0
455 971 -460 0
-455 -972 461 0
455 972 -461 0
-455 -973 462 0
455 973 -462 0
-455 -974 463 0
455 974 -463 0
-455 -975 464 0
455 975 -464 0
-455 -976 465 0
455 976 -465 0
-455 -977 466 0
455 977 -466 0
-455 -978 467 0
455 978 -467 0
-455 -979 468 0
455 979 -468 0
-455 -980 469 0
455 980 -469 0
-455 -981 470 0
455 981 -470 0
-455 -982 471 0
455 982 -471 0
-455 -983 472 0
455 983 -472 0
-455 -984 473 0
455 984 -473 0
-455 -985 474 0
455 985 -474 0
-455 -986 475 0
455 986 -475 0
-455 -987 476 0
455 987 -476 0
-455 -988 477 0
455 988 -477 0
-455 -989 478 0
455 989 -478 0
-455 -990 479 0
455 990 -479 0
-455 -991 480 0
455 991 -480 0
-455 -992 481 0
455 992 -481 0
-455 -993 482 0
455 993 -482 0
-455 -994 483 0
455 994 -483 0
-455 -995 484 0
455 995 -484 0
-455 -996 485 0
455 996 -485 0
-456 -997 457 0
456 997 -457 0
-456 -998 458 0
456 998 -458 0
-456 -999 459 0
456 999 -459 0
-456 -1000 460 0
456 1000 -460 0
-456 -1001 461 0
456 1001 -461 0
-456 -1002 462 0
456 1002 -462 0
-456 -1003 463 0
456 1003 -463 0
-456 -1004 464 0
456 1004 -464 0
-456 -1005 465 0
456 1005 -465 0
-456 -1006 466 0
456 1006 -466 0
-456 -1007 467 0
456 1007 -467 0
-456 -1008 468 0
456 1008 -468 0
-456 -1009 469 0
456 1009 -469 0
-456 -1010 470 0
456 1010 -470 0
-456 -1011 471 0
456 1011 -471 0
-456 -1012 472 0
456 1012 -472 0
-456 -1013 473 0
456 1013 -473 0
-456 -1014 474 0
456 1014 -474 0
-456 -1015 475 0
456 1015 -475 0
-456 -1016 476 0
456 1016 -476 0
-456 -1017 477 0
456 1017 -477 0
-456 -1018 478 0
456 1018 -478 0
-456 -1019 479 0
456 1019 -479 0
-456 -1020 480 0
456 1020 -480 0
-456 -1021 481 0
456 1021 -481 0
-456 -1022 482 0
456 1022 -482 0
-456 -1023 483 0
456 1023 -483 0
-456 -1024 484 0
456 1024 -484 0
-456 -1025 485 0
456 1025 -485 0
-457 -1026 458 0
457 1026 -458 0
-457 -1027 459 0
457 1027 -459 0
-457 -1028 460 0
457 1028 -460 0
-457 -1029 461 0
457 1029 -461 0
-457 -1030 462 0
457 1030 -462 0
-457 -1031 463 0
457 1031 -463 0
-457 -1032 464 0
457 1032 -464 0
-457 -1033 465 0
457 1033 -465 0
-457 -1034 466 0
457 1034 -466 0
-457 -1035 467 0
457 1035 -467 0
-457 -1036 468 0
457 1036 -468 0
-457 -1037 469 0
457 1037 -469 0
-457 -1038 470 0
457 1038 -470 0
-457 -1039 471 0
457 1039 -471 0
-457 -1040 472 0
457 1040 -472 0
-457 -1041 473 0
457 1041 -473 0
-457 -1042 474 0
457 1042 -474 0
-457 -1043 475 0
457 1043 -475 0
-457 -1044 476 0
457 1044 -476 0
-457 -1045 477 0
457 1045 -477 0
-457 -1046 478 0
457 1046 -478 0
-457 -1047 479 0
457 1047 -479 0
-457 -1048 480 0
457 1048 -480 0
-457 -1049 481 0
457 1049 -481 0
-457 -1050 482 0
457 1050 -482 0
-457 -1051 483 0
457 1051 -483 0
-457 -1052 484 0
457 1052 -484 0
-457 -1053 485 0
457 1053 -485 0
-458 -1054 459 0
458 1054 -459 0
-458 -1055 460 0
458 1055 -460 0
-458 -1056 461 0
458 1056 -461 0
-458 -1057 462 0
458 1057 -462 0
-458 -1058 463 0
458 1058 -463 0
-458 -1059 464 0
458 1059 -464 0
-458 -1060 465 0
458 1060 -465 0
-458 -1061 466 0
458 1061 -466 0
-458 -1062 467 0
458 1062 -467 0
-458 -1063 468 0
458 1063 -468 0
-458 -1064 469 0
458 1064 -469 0
-458 -1065 470 0
458 1065 -470 0
-458 -1066 471 0
458 1066 -471 0
-458 -1067 472 0
458 1067 -472 0
-458 -1068 473 0
458 1068 -473 0
-458 -1069 474 0
458 1069 -474 0
-458 -1070 475 0
458 1070 -475 0
-458 -1071 476 0
458 1071 -476 0
-458 -1072 477 0
458 1072 -477 0
-458 -1073 478 0
458 1073 -478 0
-458 -1074 479 0
458 1074 -479 0
-458 -1075 480 0
458 1075 -480 0
-458 -1076 481 0
458 1076 -481 0
-458 -1077 482 0
458 1077 -482 0
-458 -1078 483 0
458 1078 -483 0
-458 -1079 484 0
458 1079 -484 0
-458 -1080 485 0
458 1080 -485 0
-459 -1081 460 0
459 1081 -460 0
-459 -1082 461 0
459 1082 -461 0
-459 -1083 462 0
459 1083 -462 0
-459 -1084 463 0
459 1084 -463 0
-459 -1085 464 0
459 1085 -464 0
-459 -1086 465 0
459 1086 -465 0
-459 -1087 466 0
459 1087 -466 0
-459 -1088 467 0
459 1088 -467 0
-459 -1089 468 0
459 1089 -468 0
-459 -1090 469 0
459 1090 -469 0
-459 -1091 470 0
459 1091 -470 0
-459 -1092 471 0
459 1092 -471 0
-459 -1093 472 0
459 1093 -472 0
-459 -1094 473 0
459 1094 -473 0
-459 -1095 474 0
459 1095 -474 0
-459 -1096 475 0
459 1096 -475 0
-459 -1097 476 0
459 1097 -476 0
-459 -1098 477 0
459 1098 -477 0
-459 -1099 478 0
459 1099 -478 0
-459 -1100 479 0
459 1100 -479 0
-459 -1101 480 0
459 1101 -480 0
-459 -1102 481 0
459 1102 -481 0
-459 -1103 482 0
459 1103 -482 0
-459 -1104 483 0
459 1104 -483 0
-459 -1105 484 0
459 1105 -484 0
-459 -1106 485 0
459 1106 -485 0
-460 -1107 461 0
460 1107 -461 0
-460 -1108 462 0
460 1108 -462 0
-460 -1109 463 0
460 1109 -463 0
-460 -1110 464 0
460 1110 -464 0
-460 -1111 465 0
460 1111 -465 0
-460 -1112 466 0
460 1112 -466 0
-460 -1113 467 0
460 1113 -467 0
-460 -1114 468 0
460 1114 -468 0
-460 -1115 469 0
460 1115 -469 0
-460 -1116 470 0
460 1116 -470 0
-460 -1117 471 0
460 1117 -471 0
-460 -1118 472 0
460 1118 -472 0
-460 -1119 473 0
460 1119 -473 0
-460 -1120 474 0
460 1120 -474 0
-460 -1121 475 0
460 1121 -475 0
-460 -1122 476 0
460 1122 -476 0
-460 -1123 477 0
460 1123 -477 0
-460 -1124 478 0
460 1124 -478 0
-460 -1125 479 0
460 1125 -479 0
-460 -1126 480 0
460 1126 -480 0
-460 -1127 481 0
460 1127 -481 0
-460 -1128 482 0
460 1128 -482 0
-460 -1129 483 0
460 1129 -483 0
-460 -1130 484 0
460 1130 -484 0
-460 -1131 485 0
460 1131 -485 0
-461 -1132 462 0
461 1132 -462 0
-461 -1133 463 0
461 1133 -463 0
-461 -1134 464 0
461 1134 -464 0
-461 -1135 465 0
461 1135 -465 0
-461 -1136 466 0
461 1136 -466 0
-461 -1137 467 0
461 1137 -467 0
-461 -1138 468 0
461 1138 -468 0
-461 -1139 469 0
461 1139 -469 0
-461 -1140 470 0
461 1140 -470 0
-461 -1141 471 0
461 1141 -471 0
-461 -1142 472 0
461 1142 -472 0
-461 -1143 473 0
461 1143 -473 0
-461 -1144 474 0
461 1144 -474 0
-461 -1145 475 0
461 1145 -475 0
-461 -1146 476 0
461 1146 -476 0
-461 -1147 477 0
461 1147 -477 0
-461 -1148 478 0
461 1148 -478 0
-461 -1149 479 0
461 1149 -479 0
-461 -1150 480 0
461 1150 -480 0
-461 -1151 481 0
461 1151 -481 0
-461 -1152 482 0
461 1152 -482 0
-461 -1153 483 0
461 1153 -483 0
-461 -1154 484 0
461 1154 -484 0
-461 -1155 485 0
461 1155 -485 0
-462 -1156 463 0
462 1156 -463 0
-462 -1157 464 0
462 1157 -464 0
-462 -1158 465 0
462 1158 -465 0
-462 -1159 466 0
462 1159 -466 0
-462 -1160 467 0
462 1160 -467 0
-462 -1161 468 0
462 1161 -468 0
-462 -1162 469 0
462 1162 -469 0
-462 -1163 470 0
462 1163 -470 0
-462 -1164 471 0
462 1164 -471 0
-462 -1165 472 0
462 1165 -472 0
-462 -1166 473 0
462 1166 -473 0
-462 -1167 474 0
462 1167 -474 0
-462 -1168 475 0
462 1168 -475 0
-462 -1169 476 0
462 1169 -476 0
-462 -1170 477 0
462 1170 -477 0
-462 -1171 478 0
462 1171 -478 0
-462 -1172 479 0
462 1172 -479 0
-462 -1173 480 0
462 1173 -480 0
-462 -1174 481 0
462 1174 -481 0
-462 -1175 482 0
462 1175 -482 0
-462 -1176 483 0
462 1176 -483 0
-462 -1177 484 0
462 1177 -484 0
-462 -1178 485 0
462 1178 -485 0
-463 -1179 464 0
463 1179 -464 0
-463 -1180 465 0
463 1180 -465 0
-463 -1181 466 0
463 1181 -466 0
-463 -1182 467 0
463 1182 -467 0
-463 -1183 468 0
463 1183 -468 0
-463 -1184 469 0
463 1184 -469 0
-463 -1185 470 0
463 1185 -470 0
-463 -1186 471 0
463 1186 -471 0
-463 -1187 472 0
463 1187 -472 0
-463 -1188 473 0
463 1188 -473 0
-463 -1189 474 0
463 1189 -474 0
-463 -1190 475 0
463 1190 -475 0
-463 -1191 476 0
463 1191 -476 0
-463 -1192 477 0
463 1192 -477 0
-463 -1193 478 0
463 1193 -478 0
-463 -1194 479 0
463 1194 -479 0
-463 -1195 480 0
463 1195 -480 0
-463 -1196 481 0
463 1196 -481 0
-463 -1197 482 0
463 1197 -482 0
-463 -1198 483 0
463 1198 -483 0
-463 -1199 484 0
463 1199 -484 0
-463 -1200 485 0
463 1200 -485 0
-464 -1201 465 0
464 1201 -465 0
-464 -1202 466 0
464 1202 -466 0
-464 -1203 467 0
464 1203 -467 0
-464 -1204 468 0
464 1204 -468 0
-464 -1205 469 0
464 1205 -469 0
-464 -1206 470 0
464 1206 -470 0
-464 -1207 471 0
464 1207 -471 0
-464 -1208 472 0
464 1208 -472 0
-464 -1209 473 0
464 1209 -473 0
-464 -1210 474 0
464 1210 -474 0
-464 -1211 475 0
464 1211 -475 0
-464 -1212 476 0
464 1212 -476 0
-464 -1213 477 0
464 1213 -477 0
-464 -1214 478 0
464 1214 -478 0
-464 -1215 479 0
464 1215 -479 0
-464 -1216 480 0
464 1216 -480 0
-464 -1217 481 0
464 1217 -481 0
-464 -1218 482 0
464 1218 -482 0
-464 -1219 483 0
464 1219 -483 0
-464 -1220 484 0
464 1220 -484 0
-464 -1221 485 0
464 1221 -485 0
-465 -1222 466 0
465 1222 -466 0
-465 -1223 467 0
465 1223 -467 0
-465 -1224 468 0
465 1224 -468 0
-465 -1225 469 0
465 1225 -469 0
-465 -1226 470 0
465 1226 -470 0
-465 -1227 471 0
465 1227 -471 0
-465 -1228 472 0
465 1228 -472 0
-465 -1229 473 0
465 1229 -473 0
-465 -1230 474 0
465 1230 -474 0
-465 -1231 475 0
465 1231 -475 0
-465 -1232 476 0
465 1232 -476 0
-465 -1233 477 0
465 1233 -477 0
-465 -1234 478 0
465 1234 -478 0
-465 -1235 479 0
465 1235 -479 0
-465 -1236 480 0
465 1236 -480 0
-465 -1237 481 0
465 1237 -481 0
-465 -1238 482 0
465 1238 -482 0
-465 -1239 483 0
465 1239 -483 0
-465 -1240 484 0
465 1240 -484 0
-465 -1241 485 0
465 1241 -485 0
-466 -1242 467 0
466 1242 -467 0
-466 -1243 468 0
466 1243 -468 0
-466 -1244 469 0
466 1244 -469 0
-466 -1245 470 0
466 1245 -470 0
-466 -1246 471 0
466 1246 -471 0
-466 -1247 472 0
466 1247 -472 0
-466 -1248 473 0
466 1248 -473 0
-466 -1249 474 0
466 1249 -474 0
-466 -1250 475 0
466 1250 -475 0
-466 -1251 476 0
466 1251 -476 0
-466 -1252 477 0
466 1252 -477 0
-466 -1253 478 0
466 1253 -478 0
-466 -1254 479 0
466 1254 -479 0
-466 -1255 480 0
466 1255 -480 0
-466 -1256 481 0
466 1256 -481 0
-466 -1257 482 0
466 1257 -482 0
-466 -1258 483 0
466 1258 -483 0
-466 -1259 484 0
466 1259 -484 0
-466 -1260 485 0
466 1260 -485 0
-467 -1261 468 0
467 1261 -468 0
-467 -1262 469 0
467 1262 -469 0
-467 -1263 470 0
467 1263 -470 0
-467 -1264 471 0
467 1264 -471 0
-467 -1265 472 0
467 1265 -472 0
-467 -1266 473 0
467 1266 -473 0
-467 -1267 474 0
467 1267 -474 0
-467 -1268 475 0
467 1268 -475 0
-467 -1269 476 0
467 1269 -476 0
-467 -1270 477 0
467 1270 -477 0
-467 -1271 478 0
467 1271 -478 0
-467 -1272 479 0
467 1272 -479 0
-467 -1273 480 0
467 1273 -480 0
-467 -1274 481 0
467 1274 -481 0
-467 -1275 482 0
467 1275 -482 0
-467 -1276 483 0
467 1276 -483 0
-467 -1277 484 0
467 1277 -484 0
-467 -1278 485 0
467 1278 -485 0
-468 -1279 469 0
468 1279 -469 0
-468 -1280 470 0
468 1280 -470 0
-468 -1281 471 0
468 1281 -471 0
-468 -1282 472 0
468 1282 -472 0
-468 -1283 473 0
468 1283 -473 0
-468 -1284 474 0
468 1284 -474 0
-468 -1285 475 0
468 1285 -475 0
-468 -1286 476 0
468 1286 -476 0
-468 -1287 477 0
468 1287 -477 0
-468 -1288 478 0
468 1288 -478 0
-468 -1289 479 0
468 1289 -479 0
-468 -1290 480 0
468 1290 -480 0
-468 -1291 481 0
468 1291 -481 0
-468 -1292 482 0
468 1292 -482 0
-468 -1293 483 0
468 1293 -483 0
-468 -1294 484 0
468 1294 -484 0
-468 -1295 485 0
468 1295 -485 0
-469 -1296 470 0
469 1296 -470 0
-469 -1297 471 0
469 1297 -471 0
-469 -1298 472 0
469 1298 -472 0
-469 -1299 473 0
469 1299 -473 0
-469 -1300 474 0
469 1300 -474 0
-469 -1301 475 0
469 1301 -475 0
-469 -1302 476 0
469 1302 -476 0
-469 -1303 477 0
469 1303 -477 0
-469 -1304 478 0
469 1304 -478 0
-469 -1305 479 0
469 1305 -479 0
-469 -1306 480 0
469 1306 -480 0
-469 -1307 481 0
469 1307 -481 0
-469 -1308 482 0
469 1308 -482 0
-469 -1309 483 0
469 1309 -483 0
-469 -1310 484 0
469 1310 -484 0
-469 -1311 485 0
469 1311 -485 0
-470 -1312 471 0
470 1312 -471 0
-470 -1313 472 0
470 1313 -472 0
-470 -1314 473 0
470 1314 -473 0
-470 -1315 474 0
470 1315 -474 0
-470 -1316 475 0
470 1316 -475 0
-470 -1317 476 0
470 1317 -476 0
-470 -1318 477 0
470 1318 -477 0
-470 -1319 478 0
470 1319 -478 0
-470 -1320 479 0
470 1320 -479 0
-470 -1321 480 0
470 1321 -480 0
-470 -1322 481 0
470 1322 -481 0
-470 -1323 482 0
470 1323 -482 0
-470 -1324 483 0
470 1324 -483 0
-470 -1325 484 0
470 1325 -484 0
-470 -1326 485 0
470 1326 -485 0
-471 -1327 472 0
471 1327 -472 0
-471 -1328 473 0
471 1328 -473 0
-471 -1329 474 0
471 1329 -474 0
-471 -1330 475 0
471 1330 -475 0
-471 -1331 476 0
471 1331 -476 0
-471 -1332 477 0
471 1332 -477 0
-471 -1333 478 0
471 1333 -478 0
-471 -1334 479 0
471 1334 -479 0
-471 -1335 480 0
471 1335 -480 0
-471 -1336 481 0
471 1336 -481 0
-471 -1337 482 0
471 1337 -482 0
-471 -1338 483 0
471 1338 -483 0
-471 -1339 484 0
471 1339 -484 0
-471 -1340 485 0
471 1340 -485 0
-472 -1341 473 0
472 1341 -473 0
-472 -1342 474 0
472 1342 -474 0
-472 -1343 475 0
472 1343 -475 0
-472 -1344 476 0
472 1344 -476 0
-472 -1345 477 0
472 1345 -477 0
-472 -1346 478 0
472 1346 -478 0
-472 -1347 479 0
472 1347 -479 0
-472 -1348 480 0
472 1348 -480 0
-472 -1349 481 0
472 1349 -481 0
-472 -1350 482 0
472 1350 -482 0
-472 -1351 483 0
472 1351 -483 0
-472 -1352 484 0
472 1352 -484 0
-472 -1353 485 0
472 1353 -485 0
-473 -1354 474 0
473 1354 -474 0
-473 -1355 475 0
473 1355 -475 0
-473 -1356 476 0
473 1356 -476 0
-473 -1357 477 0
473 1357 -477 0
-473 -1358 478 0
473 1358 -478 0
-473 -1359 479 0
473 1359 -479 0
-473 -1360 480 0
473 1360 -480 0
-473 -1361 481 0
473 1361 -481 0
-473 -1362 482 0
473 1362 -482 0
-473 -1363 483 0
473 1363 -483 0
-473 -1364 484 0
473 1364 -484 0
-473 -1365 485 0
473 1365 -485 0
-474 -1366 475 0
474 1366 -475 0
-474 -1367 476 0
474 1367 -476 0
-474 -1368 477 0
474 1368 -477 0
-474 -1369 478 0
474 1369 -478 0
-474 -1370 479 0
474 1370 -479 0
-474 -1371 480 0
474 1371 -480 0
-474 -1372 481 0
474 1372 -481 0
-474 -1373 482 0
474 1373 -482 0
-474 -1374 483 0
474 1374 -483 0
-474 -1375 484 0
474 1375 -484 0
-474 -1376 485 0
474 1376 -485 0
-475 -1377 476 0
475 1377 -476 0
-475 -1378 477 0
475 1378 -477 0
-475 -1379 478 0
475 1379 -478 0
-475 -1380 479 0
475 1380 -479 0
-475 -1381 480 0
475 1381 -480 0
-475 -1382 481 0
475 1382 -481 0
-475 -1383 482 0
475 1383 -482 0
-475 -1384 483 0
475 1384 -483 0
-475 -1385 484 0
475 1385 -484 0
-475 -1386 485 0
475 1386 -485 0
-476 -1387 477 0
476 1387 -477 0
-476 -1388 478 0
476 1388 -478 0
-476 -1389 479 0
476 1389 -479 0
-476 -1390 480 0
476 1390 -480 0
-476 -1391 481 0
476 1391 -481 0
-476 -1392 482 0
476 1392 -482 0
-476 -1393 483 0
476 1393 -483 0
-476 -1394 484 0
476 1394 -484 0
-476 -1395 485 0
476 1395 -485 0
-477 -1396 478 0
477 1396 -478 0
-477 -1397 479 0
477 1397 -479 0
-477 -1398 480 0
477 1398 -480 0
-477 -1399 481 0
477 1399 -481 0
-477 -1400 482 0
477 1400 -482 0
-477 -1401 483 0
477 1401 -483 0
-477 -1402 484 0
477 1402 -484 0
-477 -1403 485 0
477 1403 -485 0
-478 -1404 479 0
478 1404 -479 0
-478 -1405 480 0
478 1405 -480 0
-478 -1406 481 0
478 1406 -481 0
-478 -1407 482 0
478 1407 -482 0
-478 -1408 483 0
478 1408 -483 0
-478 -1409 484 0
478 1409 -484 0
-478 -1410 485 0
478 1410 -485 0
-479 -1411 480 0
479 1411 -480 0
-479 -1412 481 0
479 1412 -481 0
-479 -1413 482 0
479 1413 -482 0
-479 -1414 483 0
479 1414 -483 0
-479 -1415 484 0
479 1415 -484 0
-479 -1416 485 0
479 1416 -485 0
-480 -1417 481 0
480 1417 -481 0
-480 -1418 482 0
480 1418 -482 0
-480 -1419 483 0
480 1419 -483 0
-480 -1420 484 0
480 1420 -484 0
-480 -1421 485 0
480 1421 -485 0
-481 -1422 482 0
481 1422 -482 0
-481 -1423 483 0
481 1423 -483 0
-481 -1424 484 0
481 1424 -484 0
-481 -1425 485 0
481 1425 -485 0
-482 -1426 483 0
482 1426 -483 0
-482 -1427 484 0
482 1427 -484 0
-482 -1428 485 0
482 1428 -485 0
-483 -1429 484 0
483 1429 -484 0
-483 -1430 485 0
483 1430 -485 0
-484 -1431 485 0
484 1431 -485 0
-486 -529 487 0
486 529 -487 0
-486 -530 488 0
486 530 -488 0
-486 -531 489 0
486 531 -489 0
-486 -532 490 0
486 532 -490 0
-486 -533 491 0
486 533 -491 0
-486 -534 492 0
486 534 -492 0
-486 -535 493 0
486 535 -493 0
-486 -536 494 0
486 536 -494 0
-486 -537 495 0
486 537 -495 0
-486 -538 496 0
486 538 -496 0
-486 -539 497 0
486 539 -497 0
-486 -540 498 0
486 540 -498 0
-486 -541 499 0
486 541 -499 0
-486 -542 500 0
486 542 -500 0
-486 -543 501 0
486 543 -501 0
-486 -544 502 0
486 544 -502 0
-486 -545 503 0
486 545 -503 0
-486 -546 504 0
486 546 -504 0
-486 -547 505 0
486 547 -505 0
-486 -548 506 0
486 548 -506 0
-486 -549 507 0
486 549 -507 0
-486 -550 508 0
486 550 -508 0
-486 -551 509 0
486 551 -509 0
-486 -552 510 0
486 552 -510 0
-486 -553 511 0
486 553 -511 0
-486 -554 512 0
486 554 -512 0
-486 -555 513 0
486 555 -513 0
-486 -556 514 0
486 556 -514 0
-486 -557 515 0
486 557 -515 0
-486 -558 516 0
486 558 -516 0
-486 -559 517 0
486 559 -517 0
-486 -560 518 0
486 560 -518 0
-486 -561 519 0
486 561 -519 0
-486 -562 520 0
486 562 -520 0
-486 -563 521 0
486 563 -521 0
-486 -564 522 0
486 564 -522 0
-486 -565 523 0
486 565 -523 0
-486 -566 524 0
486 566 -524 0
-486 -567 525 0
486 567 -525 0
-486 -568 526 0
486 568 -526 0
-486 -569 527 0
486 569 -527 0
-486 -570 528 0
486 570 -528 0
-487 -571 488 0
487 571 -488 0
-487 -572 489 0
487 572 -489 0
-487 -573 490 0
487 573 -490 0
-487 -574 491 0
487 574 -491 0
-487 -575 492 0
487 575 -492 0
-487 -576 493 0
487 576 -493 0
-487 -577 494 0
487 577 -494 0
-487 -578 495 0
487 578 -495 0
-487 -579 496 0
487 579 -496 0
-487 -580 497 0
487 580 -497 0
-487 -581 498 0
487 581 -498 0
-487 -582 499 0
487 582 -499 0
-487 -583 500 0
487 583 -500 0
-487 -584 501 0
487 584 -501 0
-487 -585 502 0
487 585 -502 0
-487 -586 503 0
487 586 -503 0
-487 -587 504 0
487 587 -504 0
-487 -588 505 0
487 588 -505 0
-487 -589 506 0
487 589 -506 0
-487 -590 507 0
487 590 -507 0
-487 -591 508 0
487 591 -508 0
-487 -592 509 0
487 592 -509 0
-487 -593 510 0
487 593 -510 0
-487 -594 511 0
487 594 -511 0
-487 -595 512 0
487 595 -512 0
-487 -596 513 0
487 596 -513 0
-487 -597 514 0
487 597 -514 0
-487 -598 515 0
487 598 -515 0
-487 -599 516 0
487 599 -516 0
-487 -600 517 0
487 600 -517 0
-487 -601 518 0
487 601 -518 0
-487 -602 519 0
487 602 -519 0
-487 -603 520 0
487 603 -520 0
-487 -604 521 0
487 604 -521 0
-487 -605 522 0
487 605 -522 0
-487 -606 523 0
487 606 -523 0
-487 -607 524 0
487 607 -524 0
-487 -608 525 0
487 608 -525 0
-487 -609 526 0
487 609 -526 0
-487 -610 527 0
487 610 -527 0
-487 -611 528 0
487 611 -528 0
-488 -612 489 0
488 612 -489 0
-488 -613 490 0
488 613 -490 0
-488 -614 491 0
488 614 -491 0
-488 -615 492 0
488 615 -492 0
-488 -616 493 0
488 616 -493 0
-488 -617 494 0
488 617 -494 0
-488 -618 495 0
488 618 -495 0
-488 -619 496 0
488 619 -496 0
-488 -620 497 0
488 620 -497 0
-488 -621 498 0
488 621 -498 0
-488 -622 499 0
488 622 -499 0
-488 -623 500 0
488 623 -500 0
-488 -624 501 0
488 624 -501 0
-488 -625 502 0
488 625 -502 0
-488 -626 503 0
488 626 -503 0
-488 -627 504 0
488 627 -504 0
-488 -628 505 0
488 628 -505 0
-488 -629 506 0
488 629 -506 0
-488 -630 507 0
488 630 -507 0
-488 -631 508 0
488 631 -508 0
-488 -632 509 0
488 632 -509 0
-488 -633 510 0
488 633 -510 0
-488 -634 511 0
488 634 -511 0
-488 -635 512 0
488 635 -512 0
-488 -636 513 0
488 636 -513 0
-488 -637 514 0
488 637 -514 0
-488 -638 515 0
488 638 -515 0
-488 -639 516 0
488 639 -516 0
-488 -640 517 0
488 640 -517 0
-488 -641 518 0
488 641 -518 0
-488 -642 519 0
488 642 -519 0
-488 -643 520 0
488 643 -520 0
-488 -644 521 0
488 644 -521 0
-488 -645 522 0
488 645 -522 0
-488 -646 523 0
488 646 -523 0
-488 -647 524 0
488 647 -524 0
-488 -648 525 0
488 648 -525 0
-488 -649 526 0
488 649 -526 0
-488 -650 527 0
488 650 -527 0
-488 -651 528 0
488 651 -528 0
-489 -652 490 0
489 652 -490 0
-489 -653 491 0
489 653 -491 0
-489 -654 492 0
489 654 -492 0
-489 -655 493 0
489 655 -493 0
-489 -656 494 0
489 656 -494 0
-489 -657 495 0
489 657 -495 0
-489 -658 496 0
489 658 -496 0
-489 -659 497 0
489 659 -497 0
-489 -660 498 0
489 660 -498 0
-489 -661 499 0
489 661 -499 0
-489 -662 500 0
489 662 -500 0
-489 -663 501 0
489 663 -501 0
-489 -664 502 0
489 664 -502 0
-489 -665 503 0
489 665 -503 0
-489 -666 504 0
489 666 -504 0
-489 -667 505 0
489 667 -505 0
-489 -668 506 0
489 668 -506 0
-489 -669 507 0
489 669 -507 0
-489 -670 508 0
489 670 -508 0
-489 -671 509 0
489 671 -509 0
-489 -672 510 0
489 672 -510 0
-489 -673 511 0
489 673 -511 0
-489 -674 512 0
489 674 -512 0
-489 -675 513 0
489 675 -513 0
-489 -676 514 0
489 676 -514 0
-489 -677 515 0
489 677 -515 0
-489 -678 516 0
489 678 -516 0
-489 -679 517 0
489 679 -517 0
-489 -680 518 0
489 680 -518 0
-489 -681 519 0
489 681 -519 0
-489 -682 520 0
489 682 -520 0
-489 -683 521 0
489 683 -521 0
-489 -684 522 0
489 684 -522 0
-489 -685 523 0
489 685 -523 0
-489 -686 524 0
489 686 -524 0
-489 -687 525 0
489 687 -525 0
-489 -688 526 0
489 688 -526 0
-489 -689 527 0
489 689 -527 0
-489 -690 528 0
489 690 -528 0
-490 -691 491 0
490 691 -491 0
-490 -692 492 0
490 692 -492 0
-490 -693 493 0
490 693 -493 0
-490 -694 494 0
490 694 -494 0
-490 -695 495 0
490 695 -495 0
-490 -696 496 0
490 696 -496 0
-490 -697 497 0
490 697 -497 0
-490 -698 498 0
490 698 -498 0
-490 -699 499 0
490 699 -499 0
-490 -700 500 0
490 700 -500 0
-490 -701 501 0
490 701 -501 0
-490 -702 502 0
490 702 -502 0
-490 -703 503 0
490 703 -503 0
-490 -704 504 0
490 704 -504 0
-490 -705 505 0
490 705 -505 0
-490 -706 506 0
490 706 -506 0
-490 -707 507 0
490 707 -507 0
-490 -708 508 0
490 708 -508 0
-490 -709 509 0
490 709 -509 0
-490 -710 510 0
490 710 -510 0
-490 -711 511 0
490 711 -511 0
-490 -712 512 0
490 712 -512 0
-490 -713 513 0
490 713 -513 0
-490 -714 514 0
490 714 -514 0
-490 -715 515 0
490 715 -515 0
-490 -716 516 0
490 716 -516 0
-490 -717 517 0
490 717 -517 0
-490 -718 518 0
490 718 -518 0
-490 -719 519 0
490 719 -519 0
-490 -720 520 0
490 720 -520 0
-490 -721 521 0
490 721 -521 0
-490 -722 522 0
490 722 -522 0
-490 -723 523 0
490 723 -523 0
-490 -724 524 0
490 724 -524 0
-490 -725 525 0
490 725 -525 0
-490 -726 526 0
490 726 -526 0
-490 -727 527 0
490 727 -527 0
-490 -728 528 0
490 728 -528 0
-491 -729 492 0
491 729 -492 0
-491 -730 493 0
491 730 -493 0
-491 -731 494 0
491 731 -494 0
-491 -732 495 0
491 732 -495 0
-491 -733 496 0
491 733 -496 0
-491 -734 497 0
491 734 -497 0
-491 -735 498 0
491 735 -498 0
-491 -736 499 0
491 736 -499 0
-491 -737 500 0
491 737 -500 0
-491 -738 501 0
491 738 -501 0
-491 -739 502 0
491 739 -502 0
-491 -740 503 0
491 740 -503 0
-491 -741 504 0
491 741 -504 0
-491 -742 505 0
491 742 -505 0
-491 -743 506 0
491 743 -506 0
-491 -744 507 0
491 744 -507 0
-491 -745 508 0
491 745 -508 0
-491 -746 509 0
491 746 -509 0
-491 -747 510 0
491 747 -510 0
-491 -748 511 0
491 748 -511 0
-491 -749 512 0
491 749 -512 0
-491 -750 513 0
491 750 -513 0
-491 -751 514 0
491 751 -514 0
-491 -752 515 0
491 752 -515 0
-491 -753 516 0
491 753 -516 0
-491 -754 517 0
491 754 -517 0
-491 -755 518 0
491 755 -518 0
-491 -756 519 0
491 756 -519 0
-491 -757 520 0
491 757 -520 0
-491 -758 521 0
491 758 -521 0
-491 -759 522 0
491 759 -522 0
-491 -760 523 0
491 760 -523 0
-491 -761 524 0
491 761 -524 0
-491 -762 525 0
491 762 -525 0
-491 -763 526 0
491 763 -526 0
-491 -764 527 0
491 764 -527 0
-491 -765 528 0
491 765 -528 0
-492 -766 493 0
492 766 -493 0
-492 -767 494 0
492 767 -494 0
-492 -768 495 0
492 768 -495 0
-492 -769 496 0
492 769 -496 0
-492 -770 497 0
492 770 -497 0
-492 -771 498 0
492 771 -498 0
-492 -772 499 0
492 772 -499 0
-492 -773 500 0
492 773 -500 0
-492 -774 501 0
492 774 -501 0
-492 -775 502 0
492 775 -502 0
-492 -776 503 0
492 776 -503 0
-492 -777 504 0
492 777 -504 0
-492 -778 505 0
492 778 -505 0
-492 -779 506 0
492 779 -506 0
-492 -780 507 0
492 780 -507 0
-492 -781 508 0
492 781 -508 0
-492 -782 509 0
492 782 -509 0
-492 -783 510 0
492 783 -510 0
-492 -784 511 0
492 784 -511 0
-492 -785 512 0
492 785 -512 0
-492 -786 513 0
492 786 -513 0
-492 -787 514 0
492 787 -514 0
-492 -788 515 0
492 788 -515 0
-492 -789 516 0
492 789 -516 0
-492 -790 517 0
492 790 -517 0
-492 -791 518 0
492 791 -518 0
-492 -792 519 0
492 792 -519 0
-492 -793 520 0
492 793 -520 0
-492 -794 521 0
492 794 -521 0
-492 -795 522 0
492 795 -522 0
-492 -796 523 0
492 796 -523 0
-492 -797 524 0
492 797 -524 0
-492 -798 525 0
492 798 -525 0
-492 -799 526 0
492 799 -526 0
-492 -800 527 0
492 800 -527 0
-492 -801 528 0
492 801 -528 0
-493 -802 494 0
493 802 -494 0
-493 -803 495 0
493 803 -495 0
-493 -804 496 0
493 804 -496 0
-493 -805 497 0
493 805 -497 0
-493 -806 498 0
493 806 -498 0
-493 -807 499 0
493 807 -499 0
-493 -808 500 0
493 808 -500 0
-493 -809 501 0
493 809 -501 0
-493 -810 502 0
493 810 -502 0
-493 -811 503 0
493 811 -503 0
-493 -812 504 0
493 812 -504 0
-493 -813 505 0
493 813 -505 0
-493 -814 506 0
493 814 -506 0
-493 -815 507 0
493 815 -507 0
-493 -816 508 0
493 816 -508 0
-493 -817 509 0
493 817 -509 0
-493 -818 510 0
493 818 -510 0
-493 -819 511 0
493 819 -511 0
-493 -820 512 0
493 820 -512 0
-493 -821 513 0
493 821 -513 0
-493 -822 514 0
493 822 -514 0
-493 -823 515 0
493 823 -515 0
-493 -824 516 0
493 824 -516 0
-493 -825 517 0
493 825 -517 0
-493 -826 518 0
493 826 -518 0
-493 -827 519 0
493 827 -519 0
-493 -828 520 0
493 828 -520 0
-493 -829 521 0
493 829 -521 0
-493 -830 522 0
493 830 -522 0
-493 -831 523 0
493 831 -523 0
-493 -832 524 0
493 832 -524 0
-493 -833 525 0
493 833 -525 0
-493 -834 526 0
493 834 -526 0
-493 -835 527 0
493 835 -527 0
-493 -836 528 0
493 836 -528 0
-494 -837 495 0
494 837 -495 0
-494 -838 496 0
494 838 -496 0
-494 -839 497 0
494 839 -497 0
-494 -840 498 0
494 840 -498 0
-494 -841 499 0
494 841 -499 0
-494 -842 500 0
494 842 -500 0
-494 -843 501 0
494 843 -501 0
-494 -844 502 0
494 844 -502 0
-494 -845 503 0
494 845 -503 0
-494 -846 504 0
494 846 -504 0
-494 -847 505 0
494 847 -505 0
-494 -848 506 0
494 848 -506 0
-494 -849 507 0
494 849 -507 0
-494 -850 508 0
494 850 -508 0
-494 -851 509 0
494 851 -509 0
-494 -852 510 0
494 852 -510 0
-494 -853 511 0
494 853 -511 0
-494 -854 512 0
494 854 -512 0
-494 -855 513 0
494 855 -513 0
-494 -856 514 0
494 856 -514 0
-494 -857 515 0
494 857 -515 0
-494 -858 516 0
494 858 -516 0
-494 -859 517 0
494 859 -517 0
-494 -860 518 0
494 860 -518 0
-494 -861 519 0
494 861 -519 0
-494 -862 520 0
494 862 -520 0
-494 -863 521 0
494 863 -521 0
-494 -864 522 0
494 864 -522 0
-494 -865 523 0
494 865 -523 0
-494 -866 524 0
494 866 -524 0
-494 -867 525 0
494 867 -525 0
-494 -868 526 0
494 868 -526 0
-494 -869 527 0
494 869 -527 0
-494 -870 528 0
494 870 -528 0
-495 -871 496 0
495 871 -496 0
-495 -872 497 0
495 872 -497 0
-495 -873 498 0
495 873 -498 0
-495 -874 499 0
495 874 -499 0
-495 -875 500 0
495 875 -500 0
-495 -876 501 0
495 876 -501 0
-495 -877 502 0
495 877 -502 0
-495 -878 503 0
495 878 -503 0
-495 -879 504 0
495 879 -504 0
-495 -880 505 0
495 880 -505 0
-495 -881 506 0
495 881 -506 0
-495 -882 507 0
495 882 -507 0
-495 -883 508 0
495 883 -508 0
-495 -884 509 0
495 884 -509 0
-495 -885 510 0
495 885 -510 0
-495 -886 511 0
495 886 -511 0
-495 -887 512 0
495 887 -512 0
-495 -888 513 0
495 888 -513 0
-495 -889 514 0
495 889 -514 0
-495 -890 515 0
495 890 -515 0
-495 -891 516 0
495 891 -516 0
-495 -892 517 0
495 892 -517 0
-495 -893 518 0
495 893 -518 0
-495 -894 519 0
495 894 -519 0
-495 -895 520 0
495 895 -520 0
-495 -896 521 0
495 896 -521 0
-495 -897 522 0
495 897 -522 0
-495 -898 523 0
495 898 -523 0
-495 -899 524 0
495 899 -524 0
-495 -900 525 0
495 900 -525 0
-495 -901 526 0
495 901 -526 0
-495 -902 527 0
495 902 -527 0
-495 -903 528 0
495 903 -528 0
-496 -904 497 0
496 904 -497 0
-496 -905 498 0
496 905 -498 0
-496 -906 499 0
496 906 -499 0
-496 -907 500 0
496 907 -500 0
-496 -908 501 0
496 908 -501 0
-496 -909 502 0
496 909 -502 0
-496 -910 503 0
496 910 -503 0
-496 -911 504 0
496 911 -504 0
-496 -912 505 0
496 912 -505 0
-496 -913 506 0
496 913 -506 0
-496 -914 507 0
496 914 -507 0
-496 -915 508 0
496 915 -508 0
-496 -916 509 0
496 916 -509 0
-496 -917 510 0
496 917 -510 0
-496 -918 511 0
496 918 -511 0
-496 -919 512 0
496 919 -512 0
-496 -920 513 0
496 920 -513 0
-496 -921 514 0
496 921 -514 0
-496 -922 515 0
496 922 -515 0
-496 -923 516 0
496 923 -516 0
-496 -924 517 0
496 924 -517 0
-496 -925 518 0
496 925 -518 0
-496 -926 519 0
496 926 -519 0
-496 -927 520 0
496 927 -520 0
-496 -928 521 0
496 928 -521 0
-496 -929 522 0
496 929 -522 0
-496 -930 523 0
496 930 -523 0
-496 -931 524 0
496 931 -524 0
-496 -932 525 0
496 932 -525 0
-496 -933 526 0
496 933 -526 0
-496 -934 527 0
496 934 -527 0
-496 -935 528 0
496 935 -528 0
-497 -936 498 0
497 936 -498 0
-497 -937 499 0
497 937 -499 0
-497 -938 500 0
497 938 -500 0
-497 -939 501 0
497 939 -501 0
-497 -940 502 0
497 940 -502 0
-497 -941 503 0
497 941 -503 0
-497 -942 504 0
497 942 -504 0
-497 -943 505 0
497 943 -505 0
-497 -944 506 0
497 944 -506 0
-497 -945 507 0
497 945 -507 0
-497 -946 508 0
497 946 -508 0
-497 -947 509 0
497 947 -509 0
-497 -948 510 0
497 948 -510 0
-497 -949 511 0
497 949 -511 0
-497 -950 512 0
497 950 -512 0
-497 -951 513 0
497 951 -513 0
-497 -952 514 0
497 952 -514 0
-497 -953 515 0
497 953 -515 0
-497 -954 516 0
497 954 -516 0
-497 -955 517 0
497 955 -517 0
-497 -956 518 0
497 956 -518 0
-497 -957 519 0
497 957 -519 0
-497 -958 520 0
497 958 -520 0
-497 -959 521 0
497 959 -521 0
-497 -960 522 0
497 960 -522 0
-497 -961 523 0
497 961 -523 0
-497 -962 524 0
497 962 -524 0
-497 -963 525 0
497 963 -525 0
-497 -964 526 0
497 964 -526 0
-497 -965 527 0
497 965 -527 0
-497 -966 528 0
497 966 -528 0
-498 -967 499 0
498 967 -499 0
-498 -968 500 0
498 968 -500 0
-498 -969 501 0
498 969 -501 0
-498 -970 502 0
498 970 -502 0
-498 -971 503 0
498 971 -503 0
-498 -972 504 0
498 972 -504 0
-498 -973 505 0
498 973 -505 0
-498 -974 506 0
498 974 -506 0
-498 -975 507 0
498 975 -507 0
-498 -976 508 0
498 976 -508 0
-498 -977 509 0
498 977 -509 0
-498 -978 510 0
498 978 -510 0
-498 -979 511 0
498 979 -511 0
-498 -980 512 0
498 980 -512 0
-498 -981 513 0
498 981 -513 0
-498 -982 514 0
498 982 -514 0
-498 -983 515 0
498 983 -515 0
-498 -984 516 0
498 984 -516 0
-498 -985 517 0
498 985 -517 0
-498 -986 518 0
498 986 -518 0
-498 -987 519 0
498 987 -519 0
-498 -988 520 0
498 988 -520 0
-498 -989 521 0
498 989 -521 0
-498 -990 522 0
498 990 -522 0
-498 -991 523 0
498 991 -523 0
-498 -992 524 0
498 992 -524 0
-498 -993 525 0
498 993 -525 0
-498 -994 526 0
498 994 -526 0
-498 -995 527 0
498 995 -527 0
-498 -996 528 0
498 996 -528 0
-499 -997 500 0
499 997 -500 0
-499 -998 501 0
499 998 -501 0
-499 -999 502 0
499 999 -502 0
-499 -1000 503 0
499 1000 -503 0
-499 -1001 504 0
499 1001 -504 0
-499 -1002 505 0
499 1002 -505 0
-499 -1003 506 0
499 1003 -506 0
-499 -1004 507 0
499 1004 -507 0
-499 -1005 508 0
499 1005 -508 0
-499 -1006 509 0
499 1006 -509 0
-499 -1007 510 0
499 1007 -510 0
-499 -1008 511 0
499 1008 -511 0
-499 -1009 512 0
499 1009 -512 0
-499 -1010 513 0
499 1010 -513 0
-499 -1011 514 0
499 1011 -514 0
-499 -1012 515 0
499 1012 -515 0
-499 -1013 516 0
499 1013 -516 0
-499 -1014 517 0
499 1014 -517 0
-499 -1015 518 0
499 1015 -518 0
-499 -1016 519 0
499 1016 -519 0
-499 -1017 520 0
499 1017 -520 0
-499 -1018 521 0
499 1018 -521 0
-499 -1019 522 0
499 1019 -522 0
-499 -1020 523 0
499 1020 -523 0
-499 -1021 524 0
499 1021 -524 0
-499 -1022 525 0
499 1022 -525 0
-499 -1023 526 0
499 1023 -526 0
-499 -1024 527 0
499 1024 -527 0
-499 -1025 528 0
499 1025 -528 0
-500 -1026 501 0
500 1026 -501 0
-500 -1027 502 0
500 1027 -502 0
-500 -1028 503 0
500 1028 -503 0
-500 -1029 504 0
500 1029 -504 0
-500 -1030 505 0
500 1030 -505 0
-500 -1031 506 0
500 1031 -506 0
-500 -1032 507 0
500 1032 -507 0
-500 -1033 508 0
500 1033 -508 0
-500 -1034 509 0
500 1034 -509 0
-500 -1035 510 0
500 1035 -510 0
-500 -1036 511 0
500 1036 -511 0
-500 -1037 512 0
500 1037 -512 0
-500 -1038 513 0
500 1038 -513 0
-500 -1039 514 0
500 1039 -514 0
-500 -1040 515 0
500 1040 -515 0
-500 -1041 516 0
500 1041 -516 0
-500 -1042 517 0
500 1042 -517 0
-500 -1043 518 0
500 1043 -518 0
-500 -1044 519 0
500 1044 -519 0
-500 -1045 520 0
500 1045 -520 0
-500 -1046 521 0
500 1046 -521 0
-500 -1047 522 0
500 1047 -522 0
-500 -1048 523 0
500 1048 -523 0
-500 -1049 524 0
500 1049 -524 0
-500 -1050 525 0
500 1050 -525 0
-500 -1051 526 0
500 1051 -526 0
-500 -1052 527 0
500 1052 -527 0
-500 -1053 528 0
500 1053 -528 0
-501 -1054 502 0
501 1054 -502 0
-501 -1055 503 0
501 1055 -503 0
-501 -1056 504 0
501 1056 -504 0
-501 -1057 505 0
501 1057 -505 0
-501 -1058 506 0
501 1058 -506 0
-501 -1059 507 0
501 1059 -507 0
-501 -1060 508 0
501 1060 -508 0
-501 -1061 509 0
501 1061 -509 0
-501 -1062 510 0
501 1062 -510 0
-501 -1063 511 0
501 1063 -511 0
-501 -1064 512 0
501 1064 -512 0
-501 -1065 513 0
501 1065 -513 0
-501 -1066 514 0
501 1066 -514 0
-501 -1067 515 0
501 1067 -515 0
-501 -1068 516 0
501 1068 -516 0
-501 -1069 517 0
501 1069 -517 0
-501 -1070 518 0
501 1070 -518 0
-501 -1071 519 0
501 1071 -519 0
-501 -1072 520 0
501 1072 -520 0
-501 -1073 521 0
501 1073 -521 0
-501 -1074 522 0
501 1074 -522 0
-501 -1075 523 0
501 1075 -523 0
-501 -1076 524 0
501 1076 -524 0
-501 -1077 525 0
501 1077 -525 0
-501 -1078 526 0
501 1078 -526 0
-501 -1079 527 0
501 1079 -527 0
-501 -1080 528 0
501 1080 -528 0
-502 -1081 503 0
502 1081 -503 0
-502 -1082 504 0
502 1082 -504 0
-502 -1083 505 0
502 1083 -505 0
-502 -1084 506 0
502 1084 -506 0
-502 -1085 507 0
502 1085 -507 0
-502 -1086 508 0
502 1086 -508 0
-502 -1087 509 0
502 1087 -509 0
-502 -1088 510 0
502 1088 -510 0
-502 -1089 511 0
502 1089 -511 0
-502 -1090 512 0
502 1090 -512 0
-502 -1091 513 0
502 1091 -513 0
-502 -1092 514 0
502 1092 -514 0
-502 -1093 515 0
502 1093 -515 0
-502 -1094 516 0
502 1094 -516 0
-502 -1095 517 0
502 1095 -517 0
-502 -1096 518 0
502 1096 -518 0
-502 -1097 519 0
502 1097 -519 0
-502 -1098 520 0
502 1098 -520 0
-502 -1099 521 0
502 1099 -521 0
-502 -1100 522 0
502 1100 -522 0
-502 -1101 523 0
502 1101 -523 0
-502 -1102 524 0
502 1102 -524 0
-502 -1103 525 0
502 1103 -525 0
-502 -1104 526 0
502 1104 -526 0
-502 -1105 527 0
502 1105 -527 0
-502 -1106 528 0
502 1106 -528 0
-503 -1107 504 0
503 1107 -504 0
-503 -1108 505 0
503 1108 -505 0
-503 -1109 506 0
503 1109 -506 0
-503 -1110 507 0
503 1110 -507 0
-503 -1111 508 0
503 1111 -508 0
-503 -1112 509 0
503 1112 -509 0
-503 -1113 510 0
503 1113 -510 0
-503 -1114 511 0
503 1114 -511 0
-503 -1115 512 0
503 1115 -512 0
-503 -1116 513 0
503 1116 -513 0
-503 -1117 514 0
503 1117 -514 0
-503 -1118 515 0
503 1118 -515 0
-503 -1119 516 0
503 1119 -516 0
-503 -1120 517 0
503 1120 -517 0
-503 -1121 518 0
503 1121 -518 0
-503 -1122 519 0
503 1122 -519 0
-503 -1123 520 0
503 1123 -520 0
-503 -1124 521 0
503 1124 -521 0
-503 -1125 522 0
503 1125 -522 0
-503 -1126 523 0
503 1126 -523 0
-503 -1127 524 0
503 1127 -524 0
-503 -1128 525 0
503 1128 -525 0
-503 -1129 526 0
503 1129 -526 0
-503 -1130 527 0
503 1130 -527 0
-503 -1131 528 0
503 1131 -528 0
-504 -1132 505 0
504 1132 -505 0
-504 -1133 506 0
504 1133 -506 0
-504 -1134 507 0
504 1134 -507 0
-504 -1135 508 0
504 1135 -508 0
-504 -1136 509 0
504 1136 -509 0
-504 -1137 510 0
504 1137 -510 0
-504 -1138 511 0
504 1138 -511 0
-504 -1139 512 0
504 1139 -512 0
-504 -1140 513 0
504 1140 -513 0
-504 -1141 514 0
504 1141 -514 0
-504 -1142 515 0
504 1142 -515 0
-504 -1143 516 0
504 1143 -516 0
-504 -1144 517 0
504 1144 -517 0
-504 -1145 518 0
504 1145 -518 0
-504 -1146 519 0
504 1146 -519 0
-504 -1147 520 0
504 1147 -520 0
-504 -1148 521 0
504 1148 -521 0
-504 -1149 522 0
504 1149 -522 0
-504 -1150 523 0
504 1150 -523 0
-504 -1151 524 0
504 1151 -524 0
-504 -1152 525 0
504 1152 -525 0
-504 -1153 526 0
504 1153 -526 0
-504 -1154 527 0
504 1154 -527 0
-504 -1155 528 0
504 1155 -528 0
-505 -1156 506 0
505 1156 -506 0
-505 -1157 507 0
505 1157 -507 0
-505 -1158 508 0
505 1158 -508 0
-505 -1159 509 0
505 1159 -509 0
-505 -1160 510 0
505 1160 -510 0
-505 -1161 511 0
505 1161 -511 0
-505 -1162 512 0
505 1162 -512 0
-505 -1163 513 0
505 1163 -513 0
-505 -1164 514 0
505 1164 -514 0
-505 -1165 515 0
505 1165 -515 0
-505 -1166 516 0
505 1166 -516 0
-505 -1167 517 0
505 1167 -517 0
-505 -1168 518 0
505 1168 -518 0
-505 -1169 519 0
505 1169 -519 0
-505 -1170 520 0
505 1170 -520 0
-505 -1171 521 0
505 1171 -521 0
-505 -1172 522 0
505 1172 -522 0
-505 -1173 523 0
505 1173 -523 0
-505 -1174 524 0
505 1174 -524 0
-505 -1175 525 0
505 1175 -525 0
-505 -1176 526 0
505 1176 -526 0
-505 -1177 527 0
505 1177 -527 0
-505 -1178 528 0
505 1178 -528 0
-506 -1179 507 0
506 1179 -507 0
-506 -1180 508 0
506 1180 -508 0
-506 -1181 509 0
506 1181 -509 0
-506 -1182 510 0
506 1182 -510 0
-506 -1183 511 0
506 1183 -511 0
-506 -1184 512 0
506 1184 -512 0
-506 -1185 513 0
506 1185 -513 0
-506 -1186 514 0
506 1186 -514 0
-506 -1187 515 0
506 1187 -515 0
-506 -1188 516 0
506 1188 -516 0
-506 -1189 517 0
506 1189 -517 0
-506 -1190 518 0
506 1190 -518 0
-506 -1191 519 0
506 1191 -519 0
-506 -1192 520 0
506 1192 -520 0
-506 -1193 521 0
506 1193 -521 0
-506 -1194 522 0
506 1194 -522 0
-506 -1195 523 0
506 1195 -523 0
-506 -1196 524 0
506 1196 -524 0
-506 -1197 525 0
506 1197 -525 0
-506 -1198 526 0
506 1198 -526 0
-506 -1199 527 0
506 1199 -527 0
-506 -1200 528 0
506 1200 -528 0
-507 -1201 508 0
507 1201 -508 0
-507 -1202 509 0
507 1202 -509 0
-507 -1203 510 0
507 1203 -510 0
-507 -1204 511 0
507 1204 -511 0
-507 -1205 512 0
507 1205 -512 0
-507 -1206 513 0
507 1206 -513 0
-507 -1207 514 0
507 1207 -514 0
-507 -1208 515 0
507 1208 -515 0
-507 -1209 516 0
507 1209 -516 0
-507 -1210 517 0
507 1210 -517 0
-507 -1211 518 0
507 1211 -518 0
-507 -1212 519 0
507 1212 -519 0
-507 -1213 520 0
507 1213 -520 0
-507 -1214 521 0
507 1214 -521 0
-507 -1215 522 0
507 1215 -522 0
-507 -1216 523 0
507 1216 -523 0
-507 -1217 524 0
507 1217 -524 0
-507 -1218 525 0
507 1218 -525 0
-507 -1219 526 0
507 1219 -526 0
-507 -1220 527 0
507 1220 -527 0
-507 -1221 528 0
507 1221 -528 0
-508 -1222 509 0
508 1222 -509 0
-508 -1223 510 0
508 1223 -510 0
-508 -1224 511 0
508 1224 -511 0
-508 -1225 512 0
508 1225 -512 0
-508 -1226 513 0
508 1226 -513 0
-508 -1227 514 0
508 1227 -514 0
-508 -1228 515 0
508 1228 -515 0
-508 -1229 516 0
508 1229 -516 0
-508 -1230 517 0
508 1230 -517 0
-508 -1231 518 0
508 1231 -518 0
-508 -1232 519 0
508 1232 -519 0
-508 -1233 520 0
508 1233 -520 0
-508 -1234 521 0
508 1234 -521 0
-508 -1235 522 0
508 1235 -522 0
-508 -1236 523 0
508 1236 -523 0
-508 -1237 524 0
508 1237 -524 0
-508 -1238 525 0
508 1238 -525 0
-508 -1239 526 0
508 1239 -526 0
-508 -1240 527 0
508 1240 -527 0
-508 -1241 528 0
508 1241 -528 0
-509 -1242 510 0
509 1242 -510 0
-509 -1243 511 0
509 1243 -511 0
-509 -1244 512 0
509 1244 -512 0
-509 -1245 513 0
509 1245 -513 0
-509 -1246 514 0
509 1246 -514 0
-509 -1247 515 0
509 1247 -515 0
-509 -1248 516 0
509 1248 -516 0
-509 -1249 517 0
509 1249 -517 0
-509 -1250 518 0
509 1250 -518 0
-509 -1251 519 0
509 1251 -519 0
-509 -1252 520 0
509 1252 -520 0
-509 -1253 521 0
509 1253 -521 0
-509 -1254 522 0
509 1254 -522 0
-509 -1255 523 0
509 1255 -523 0
-509 -1256 524 0
509 1256 -524 0
-509 -1257 525 0
509 1257 -525 0
-509 -1258 526 0
509 1258 -526 0
-509 -1259 527 0
509 1259 -527 0
-509 -1260 528 0
509 1260 -528 0
-510 -1261 511 0
510 1261 -511 0
-510 -1262 512 0
510 1262 -512 0
-510 -1263 513 0
510 1263 -513 0
-510 -1264 514 0
510 1264 -514 0
-510 -1265 515 0
510 1265 -515 0
-510 -1266 516 0
510 1266 -516 0
-510 -1267 517 0
510 1267 -517 0
-510 -1268 518 0
510 1268 -518 0
-510 -1269 519 0
510 1269 -519 0
-510 -1270 520 0
510 1270 -520 0
-510 -1271 521 0
510 1271 -521 0
-510 -1272 522 0
510 1272 -522 0
-510 -1273 523 0
510 1273 -523 0
-510 -1274 524 0
510 1274 -524 0
-510 -1275 525 0
510 1275 -525 0
-510 -1276 526 0
510 1276 -526 0
-510 -1277 527 0
510 1277 -527 0
-510 -1278 528 0
510 1278 -528 0
-511 -1279 512 0
511 1279 -512 0
-511 -1280 513 0
511 1280 -513 0
-511 -1281 514 0
511 1281 -514 0
-511 -1282 515 0
511 1282 -515 0
-511 -1283 516 0
511 1283 -516 0
-511 -1284 517 0
511 1284 -517 0
-511 -1285 518 0
511 1285 -518 0
-511 -1286 519 0
511 1286 -519 0
-511 -1287 520 0
511 1287 -520 0
-511 -1288 521 0
511 1288 -521 0
-511 -1289 522 0
511 1289 -522 0
-511 -1290 523 0
511 1290 -523 0
-511 -1291 524 0
511 1291 -524 0
-511 -1292 525 0
511 1292 -525 0
-511 -1293 526 0
511 1293 -526 0
-511 -1294 527 0
511 1294 -527 0
-511 -1295 528 0
511 1295 -528 0
-512 -1296 513 0
512 1296 -513 0
-512 -1297 514 0
512 1297 -514 0
-512 -1298 515 0
512 1298 -515 0
-512 -1299 516 0
512 1299 -516 0
-512 -1300 517 0
512 1300 -517 0
-512 -1301 518 0
512 1301 -518 0
-512 -1302 519 0
512 1302 -519 0
-512 -1303 520 0
512 1303 -520 0
-512 -1304 521 0
512 1304 -521 0
-512 -1305 522 0
512 1305 -522 0
-512 -1306 523 0
512 1306 -523 0
-512 -1307 524 0
512 1307 -524 0
-512 -1308 525 0
512 1308 -525 0
-512 -1309 526 0
512 1309 -526 0
-512 -1310 527 0
512 1310 -527 0
-512 -1311 528 0
512 1311 -528 0
-513 -1312 514 0
513 1312 -514 0
-513 -1313 515 0
513 1313 -515 0
-513 -1314 516 0
513 1314 -516 0
-513 -1315 517 0
513 1315 -517 0
-513 -1316 518 0
513 1316 -518 0
-513 -1317 519 0
513 1317 -519 0
-513 -1318 520 0
513 1318 -520 0
-513 -1319 521 0
513 1319 -521 0
-513 -1320 522 0
513 1320 -522 0
-513 -1321 523 0
513 1321 -523 0
-513 -1322 524 0
513 1322 -524 0
-513 -1323 525 0
513 1323 -525 0
-513 -1324 526 0
513 1324 -526 0
-513 -1325 527 0
513 1325 -527 0
-513 -1326 528 0
513 1326 -528 0
-514 -1327 515 0
514 1327 -515 0
-514 -1328 516 0
514 1328 -516 0
-514 -1329 517 0
514 1329 -517 0
-514 -1330 518 0
514 1330 -518 0
-514 -1331 519 0
514 1331 -519 0
-514 -1332 520 0
514 1332 -520 0
-514 -1333 521 0
514 1333 -521 0
-514 -1334 522 0
514 1334 -522 0
-514 -1335 523 0
514 1335 -523 0
-514 -1336 524 0
514 1336 -524 0
-514 -1337 525 0
514 1337 -525 0
-514 -1338 526 0
514 1338 -526 0
-514 -1339 527 0
514 1339 -527 0
-514 -1340 528 0
514 1340 -528 0
-515 -1341 516 0
515 1341 -516 0
-515 -1342 517 0
515 1342 -517 0
-515 -1343 518 0
515 1343 -518 0
-515 -1344 519 0
515 1344 -519 0
-515 -1345 520 0
515 1345 -520 0
-515 -1346 521 0
515 1346 -521 0
-515 -1347 522 0
515 1347 -522 0
-515 -1348 523 0
515 1348 -523 0
-515 -1349 524 0
515 1349 -524 0
-515 -1350 525 0
515 1350 -525 0
-515 -1351 526 0
515 1351 -526 0
-515 -1352 527 0
515 1352 -527 0
-515 -1353 528 0
515 1353 -528 0
-516 -1354 517 0
516 1354 -517 0
-516 -1355 518 0
516 1355 -518 0
-516 -1356 519 0
516 1356 -519 0
-516 -1357 520 0
516 1357 -520 0
-516 -1358 521 0
516 1358 -521 0
-516 -1359 522 0
516 1359 -522 0
-516 -1360 523 0
516 1360 -523 0
-516 -1361 524 0
516 1361 -524 0
-516 -1362 525 0
516 1362 -525 0
-516 -1363 526 0
516 1363 -526 0
-516 -1364 527 0
516 1364 -527 0
-516 -1365 528 0
516 1365 -528 0
-517 -1366 518 0
517 1366 -518 0
-517 -1367 519 0
517 1367 -519 0
-517 -1368 520 0
517 1368 -520 0
-517 -1369 521 0
517 1369 -521 0
-517 -1370 522 0
517 1370 -522 0
-517 -1371 523 0
517 1371 -523 0
-517 -1372 524 0
517 1372 -524 0
-517 -1373 525 0
517 1373 -525 0
-517 -1374 526 0
517 1374 -526 0
-517 -1375 527 0
517 1375 -527 0
-517 -1376 528 0
517 1376 -528 0
-518 -1377 519 0
518 1377 -519 0
-518 -1378 520 0
518 1378 -520 0
-518 -1379 521 0
518 1379 -521 0
-518 -1380 522 0
518 1380 -522 0
-518 -1381 523 0
518 1381 -523 0
-518 -1382 524 0
518 1382 -524 0
-518 -1383 525 0
518 1383 -525 0
-518 -1384 526 0
518 1384 -526 0
-518 -1385 527 0
518 1385 -527 0
-518 -1386 528 0
518 1386 -528 0
-519 -1387 520 0
519 1387 -520 0
-519 -1388 521 0
519 1388 -521 0
-519 -1389 522 0
519 1389 -522 0
-519 -1390 523 0
519 1390 -523 0
-519 -1391 524 0
519 1391 -524 0
-519 -1392 525 0
519 1392 -525 0
-519 -1393 526 0
519 1393 -526 0
-519 -1394 527 0
519 1394 -527 0
-519 -1395 528 0
519 1395 -528 0
-520 -1396 521 0
520 1396 -521 0
-520 -1397 522 0
520 1397 -522 0
-520 -1398 523 0
520 1398 -523 0
-520 -1399 524 0
520 1399 -524 0
-520 -1400 525 0
520 1400 -525 0
-520 -1401 526 0
520 1401 -526 0
-520 -1402 527 0
520 1402 -527 0
-520 -1403 528 0
520 1403 -528 0
-521 -1404 522 0
521 1404 -522 0
-521 -1405 523 0
521 1405 -523 0
-521 -1406 524 0
521 1406 -524 0
-521 -1407 525 0
521 1407 -525 0
-521 -1408 526 0
521 1408 -526 0
-521 -1409 527 0
521 1409 -527 0
-521 -1410 528 0
521 1410 -528 0
-522 -1411 523 0
522 1411 -523 0
-522 -1412 524 0
522 1412 -524 0
-522 -1413 525 0
522 1413 -525 0
-522 -1414 526 0
522 1414 -526 0
-522 -1415 527 0
522 1415 -527 0
-522 -1416 528 0
522 1416 -528 0
-523 -1417 524 0
523 1417 -524 0
-523 -1418 525 0
523 1418 -525 0
-523 -1419 526 0
523 1419 -526 0
-523 -1420 527 0
523 1420 -527 0
-523 -1421 528 0
523 1421 -528 0
-524 -1422 525 0
524 1422 -525 0
-524 -1423 526 0
524 1423 -526 0
-524 -1424 527 0
524 1424 -527 0
-524 -1425 528 0
524 1425 -528 0
-525 -1426 526 0
525 1426 -526 0
-525 -1427 527 0
525 1427 -527 0
-525 -1428 528 0
525 1428 -528 0
-526 -1429 527 0
526 1429 -527 0
-526 -1430 528 0
526 1430 -528 0
-527 -1431 528 0
527 1431 -528 0
-529 -571 530 0
529 571 -530 0
-529 -572 531 0
529 572 -531 0
-529 -573 532 0
529 573 -532 0
-529 -574 533 0
529 574 -533 0
-529 -575 534 0
529 575 -534 0
-529 -576 535 0
529 576 -535 0
-529 -577 536 0
529 577 -536 0
-529 -578 537 0
529 578 -537 0
-529 -579 538 0
529 579 -538 0
-529 -580 539 0
529 580 -539 0
-529 -581 540 0
529 581 -540 0
-529 -582 541 0
529 582 -541 0
-529 -583 542 0
529 583 -542 0
-529 -584 543 0
529 584 -543 0
-529 -585 544 0
529 585 -544 0
-529 -586 545 0
529 586 -545 0
-529 -587 546 0
529 587 -546 0
-529 -588 547 0
529 588 -547 0
-529 -589 548 0
529 589 -548 0
-529 -590 549 0
529 590 -549 0
-529 -591 550 0
529 591 -550 0
-529 -592 551 0
529 592 -551 0
-529 -593 552 0
529 593 -552 0
-529 -594 553 0
529 594 -553 0
-529 -595 554 0
529 595 -554 0
-529 -596 555 0
529 596 -555 0
-529 -597 556 0
529 597 -556 0
-529 -598 557 0
529 598 -557 0
-529 -599 558 0
529 599 -558 0
-529 -600 559 0
529 600 -559 0
-529 -601 560 0
529 601 -560 0
-529 -602 561 0
529 602 -561 0
-529 -603 562 0
529 603 -562 0
-529 -604 563 0
529 604 -563 0
-529 -605 564 0
529 605 -564 0
-529 -606 565 0
529 606 -565 0
-529 -607 566 0
529 607 -566 0
-529 -608 567 0
529 608 -567 0
-529 -609 568 0
529 609 -568 0
-529 -610 569 0
529 610 -569 0
-529 -611 570 0
529 611 -570 0
-530 -612 531 0
530 612 -531 0
-530 -613 532 0
530 613 -532 0
-530 -614 533 0
530 614 -533 0
-530 -615 534 0
530 615 -534 0
-530 -616 535 0
530 616 -535 0
-530 -617 536 0
530 617 -536 0
-530 -618 537 0
530 618 -537 0
-530 -619 538 0
530 619 -538 0
-530 -620 539 0
530 620 -539 0
-530 -621 540 0
530 621 -540 0
-530 -622 541 0
530 622 -541 0
-530 -623 542 0
530 623 -542 0
-530 -624 543 0
530 624 -543 0
-530 -625 544 0
530 625 -544 0
-530 -626 545 0
530 626 -545 0
-530 -627 546 0
530 627 -546 0
-530 -628 547 0
530 628 -547 0
-530 -629 548 0
530 629 -548 0
-530 -630 549 0
530 630 -549 0
-530 -631 550 0
530 631 -550 0
-530 -632 551 0
530 632 -551 0
-530 -633 552 0
530 633 -552 0
-530 -634 553 0
530 634 -553 0
-530 -635 554 0
530 635 -554 0
-530 -636 555 0
530 636 -555 0
-530 -637 556 0
530 637 -556 0
-530 -638 557 0
530 638 -557 0
-530 -639 558 0
530 639 -558 0
-530 -640 559 0
530 640 -559 0
-530 -641 560 0
530 641 -560 0
-530 -642 561 0
530 642 -561 0
-530 -643 562 0
530 643 -562 0
-530 -644 563 0
530 644 -563 0
-530 -645 564 0
530 645 -564 0
-530 -646 565 0
530 646 -565 0
-530 -647 566 0
530 647 -566 0
-530 -648 567 0
530 648 -567 0
-530 -649 568 0
530 649 -568 0
-530 -650 569 0
530 650 -569 0
-530 -651 570 0
530 651 -570 0
-531 -652 532 0
531 652 -532 0
-531 -653 533 0
531 653 -533 0
-531 -654 534 0
531 654 -534 0
-531 -655 535 0
531 655 -535 0
-531 -656 536 0
531 656 -536 0
-531 -657 537 0
531 657 -537 0
-531 -658 538 0
531 658 -538 0
-531 -659 539 0
531 659 -539 0
-531 -660 540 0
531 660 -540 0
-531 -661 541 0
531 661 -541 0
-531 -662 542 0
531 662 -542 0
-531 -663 543 0
531 663 -543 0
-531 -664 544 0
531 664 -544 0
-531 -665 545 0
531 665 -545 0
-531 -666 546 0
531 666 -546 0
-531 -667 547 0
531 667 -547 0
-531 -668 548 0
531 668 -548 0
-531 -669 549 0
531 669 -549 0
-531 -670 550 0
531 670 -550 0
-531 -671 551 0
531 671 -551 0
-531 -672 552 0
531 672 -552 0
-531 -673 553 0
531 673 -553 0
-531 -674 554 0
531 674 -554 0
-531 -675 555 0
531 675 -555 0
-531 -676 556 0
531 676 -556 0
-531 -677 557 0
531 677 -557 0
-531 -678 558 0
531 678 -558 0
-531 -679 559 0
531 679 -559 0
-531 -680 560 0
531 680 -560 0
-531 -681 561 0
531 681 -561 0
-531 -682 562 0
531 682 -562 0
-531 -683 563 0
531 683 -563 0
-531 -684 564 0
531 684 -564 0
-531 -685 565 0
531 685 -565 0
-531 -686 566 0
531 686 -566 0
-531 -687 567 0
531 687 -567 0
-531 -688 568 0
531 688 -568 0
-531 -689 569 0
531 689 -569 0
-531 -690 570 0
531 690 -570 0
-532 -691 533 0
532 691 -533 0
-532 -692 534 0
532 692 -534 0
-532 -693 535 0
532 693 -535 0
-532 -694 536 0
532 694 -536 0
-532 -695 537 0
532 695 -537 0
-532 -696 538 0
532 696 -538 0
-532 -697 539 0
532 697 -539 0
-532 -698 540 0
532 698 -540 0
-532 -699 541 0
532 699 -541 0
-532 -700 542 0
532 700 -542 0
-532 -701 543 0
532 701 -543 0
-532 -702 544 0
532 702 -544 0
-532 -703 545 0
532 703 -545 0
-532 -704 546 0
532 704 -546 0
-532 -705 547 0
532 705 -547 0
-532 -706 548 0
532 706 -548 0
-532 -707 549 0
532 707 -549 0
-532 -708 550 0
532 708 -550 0
-532 -709 551 0
532 709 -551 0
-532 -710 552 0
532 710 -552 0
-532 -711 553 0
532 711 -553 0
-532 -712 554 0
532 712 -554 0
-532 -713 555 0
532 713 -555 0
-532 -714 556 0
532 714 -556 0
-532 -715 557 0
532 715 -557 0
-532 -716 558 0
532 716 -558 0
-532 -717 559 0
532 717 -559 0
-532 -718 560 0
532 718 -560 0
-532 -719 561 0
532 719 -561 0
-532 -720 562 0
532 720 -562 0
-532 -721 563 0
532 721 -563 0
-532 -722 564 0
532 722 -564 0
-532 -723 565 0
532 723 -565 0
-532 -724 566 0
532 724 -566 0
-532 -725 567 0
532 725 -567 0
-532 -726 568 0
532 726 -568 0
-532 -727 569 0
532 727 -569 0
-532 -728 570 0
532 728 -570 0
-533 -729 534 0
533 729 -534 0
-533 -730 535 0
533 730 -535 0
-533 -731 536 0
533 731 -536 0
-533 -732 537 0
533 732 -537 0
-533 -733 538 0
533 733 -538 0
-533 -734 539 0
533 734 -539 0
-533 -735 540 0
533 735 -540 0
-533 -736 541 0
533 736 -541 0
-533 -737 542 0
533 737 -542 0
-533 -738 543 0
533 738 -543 0
-533 -739 544 0
533 739 -544 0
-533 -740 545 0
533 740 -545 0
-533 -741 546 0
533 741 -546 0
-533 -742 547 0
533 742 -547 0
-533 -743 548 0
533 743 -548 0
-533 -744 549 0
533 744 -549 0
-533 -745 550 0
533 745 -550 0
-533 -746 551 0
533 746 -551 0
-533 -747 552 0
533 747 -552 0
-533 -748 553 0
533 748 -553 0
-533 -749 554 0
533 749 -554 0
-533 -750 555 0
533 750 -555 0
-533 -751 556 0
533 751 -556 0
-533 -752 557 0
533 752 -557 0
-533 -753 558 0
533 753 -558 0
-533 -754 559 0
533 754 -559 0
-533 -755 560 0
533 755 -560 0
-533 -756 561 0
533 756 -561 0
-533 -757 562 0
533 757 -562 0
-533 -758 563 0
533 758 -563 0
-533 -759 564 0
533 759 -564 0
-533 -760 565 0
533 760 -565 0
-533 -761 566 0
533 761 -566 0
-533 -762 567 0
533 762 -567 0
-533 -763 568 0
533 763 -568 0
-533 -764 569 0
533 764 -569 0
-533 -765 570 0
533 765 -570 0
-534 -766 535 0
534 766 -535 0
-534 -767 536 0
534 767 -536 0
-534 -768 537 0
534 768 -537 0
-534 -769 538 0
534 769 -538 0
-534 -770 539 0
534 770 -539 0
-534 -771 540 0
534 771 -540 0
-534 -772 541 0
534 772 -541 0
-534 -773 542 0
534 773 -542 0
-534 -774 543 0
534 774 -543 0
-534 -775 544 0
534 775 -544 0
-534 -776 545 0
534 776 -545 0
-534 -777 546 0
534 777 -546 0
-534 -778 547 0
534 778 -547 0
-534 -779 548 0
534 779 -548 0
-534 -780 549 0
534 780 -549 0
-534 -781 550 0
534 781 -550 0
-534 -782 551 0
534 782 -551 0
-534 -783 552 0
534 783 -552 0
-534 -784 553 0
534 784 -553 0
-534 -785 554 0
534 785 -554 0
-534 -786 555 0
534 786 -555 0
-534 -787 556 0
534 787 -556 0
-534 -788 557 0
534 788 -557 0
-534 -789 558 0
534 789 -558 0
-534 -790 559 0
534 790 -559 0
-534 -791 560 0
534 791 -560 0
-534 -792 561 0
534 792 -561 0
-534 -793 562 0
534 793 -562 0
-534 -794 563 0
534 794 -563 0
-534 -795 564 0
534 795 -564 0
-534 -796 565 0
534 796 -565 0
-534 -797 566 0
534 797 -566 0
-534 -798 567 0
534 798 -567 0
-534 -799 568 0
534 799 -568 0
-534 -800 569 0
534 800 -569 0
-534 -801 570 0
534 801 -570 0
-535 -802 536 0
535 802 -536 0
-535 -803 537 0
535 803 -537 0
-535 -804 538 0
535 804 -538 0
-535 -805 539 0
535 805 -539 0
-535 -806 540 0
535 806 -540 0
-535 -807 541 0
535 807 -541 0
-535 -808 542 0
535 808 -542 0
-535 -809 543 0
535 809 -543 0
-535 -810 544 0
535 810 -544 0
-535 -811 545 0
535 811 -545 0
-535 -812 546 0
535 812 -546 0
-535 -813 547 0
535 813 -547 0
-535 -814 548 0
535 814 -548 0
-535 -815 549 0
535 815 -549 0
-535 -816 550 0
535 816 -550 0
-535 -817 551 0
535 817 -551 0
-535 -818 552 0
535 818 -552 0
-535 -819 553 0
535 819 -553 0
-535 -820 554 0
535 820 -554 0
-535 -821 555 0
535 821 -555 0
-535 -822 556 0
535 822 -556 0
-535 -823 557 0
535 823 -557 0
-535 -824 558 0
535 824 -558 0
-535 -825 559 0
535 825 -559 0
-535 -826 560 0
535 826 -560 0
-535 -827 561 0
535 827 -561 0
-535 -828 562 0
535 828 -562 0
-535 -829 563 0
535 829 -563 0
-535 -830 564 0
535 830 -564 0
-535 -831 565 0
535 831 -565 0
-535 -832 566 0
535 832 -566 0
-535 -833 567 0
535 833 -567 0
-535 -834 568 0
535 834 -568 0
-535 -835 569 0
535 835 -569 0
-535 -836 570 0
535 836 -570 0
-536 -837 537 0
536 837 -537 0
-536 -838 538 0
536 838 -538 0
-536 -839 539 0
536 839 -539 0
-536 -840 540 0
536 840 -540 0
-536 -841 541 0
536 841 -541 0
-536 -842 542 0
536 842 -542 0
-536 -843 543 0
536 843 -543 0
-536 -844 544 0
536 844 -544 0
-536 -845 545 0
536 845 -545 0
-536 -846 546 0
536 846 -546 0
-536 -847 547 0
536 847 -547 0
-536 -848 548 0
536 848 -548 0
-536 -849 549 0
536 849 -549 0
-536 -850 550 0
536 850 -550 0
-536 -851 551 0
536 851 -551 0
-536 -852 552 0
536 852 -552 0
-536 -853 553 0
536 853 -553 0
-536 -854 554 0
536 854 -554 0
-536 -855 555 0
536 855 -555 0
-536 -856 556 0
536 856 -556 0
-536 -857 557 0
536 857 -557 0
-536 -858 558 0
536 858 -558 0
-536 -859 559 0
536 859 -559 0
-536 -860 560 0
536 860 -560 0
-536 -861 561 0
536 861 -561 0
-536 -862 562 0
536 862 -562 0
-536 -863 563 0
536 863 -563 0
-536 -864 564 0
536 864 -564 0
-536 -865 565 0
536 865 -565 0
-536 -866 566 0
536 866 -566 0
-536 -867 567 0
536 867 -567 0
-536 -868 568 0
536 868 -568 0
-536 -869 569 0
536 869 -569 0
-536 -870 570 0
536 870 -570 0
-537 -871 538 0
537 871 -538 0
-537 -872 539 0
537 872 -539 0
-537 -873 540 0
537 873 -540 0
-537 -874 541 0
537 874 -541 0
-537 -875 542 0
537 875 -542 0
-537 -876 543 0
537 876 -543 0
-537 -877 544 0
537 877 -544 0
-537 -878 545 0
537 878 -545 0
-537 -879 546 0
537 879 -546 0
-537 -880 547 0
537 880 -547 0
-537 -881 548 0
537 881 -548 0
-537 -882 549 0
537 882 -549 0
-537 -883 550 0
537 883 -550 0
-537 -884 551 0
537 884 -551 0
-537 -885 552 0
537 885 -552 0
-537 -886 553 0
537 886 -553 0
-537 -887 554 0
537 887 -554 0
-537 -888 555 0
537 888 -555 0
-537 -889 556 0
537 889 -556 0
-537 -890 557 0
537 890 -557 0
-537 -891 558 0
537 891 -558 0
-537 -892 559 0
537 892 -559 0
-537 -893 560 0
537 893 -560 0
-537 -894 561 0
537 894 -561 0
-537 -895 562 0
537 895 -562 0
-537 -896 563 0
537 896 -563 0
-537 -897 564 0
537 897 -564 0
-537 -898 565 0
537 898 -565 0
-537 -899 566 0
537 899 -566 0
-537 -900 567 0
537 900 -567 0
-537 -901 568 0
537 901 -568 0
-537 -902 569 0
537 902 -569 0
-537 -903 570 0
537 903 -570 0
-538 -904 539 0
538 904 -539 0
-538 -905 540 0
538 905 -540 0
-538 -906 541 0
538 906 -541 0
-538 -907 542 0
538 907 -542 0
-538 -908 543 0
538 908 -543 0
-538 -909 544 0
538 909 -544 0
-538 -910 545 0
538 910 -545 0
-538 -911 546 0
538 911 -546 0
-538 -912 547 0
538 912 -547 0
-538 -913 548 0
538 913 -548 0
-538 -914 549 0
538 914 -549 0
-538 -915 550 0
538 915 -550 0
-538 -916 551 0
538 916 -551 0
-538 -917 552 0
538 917 -552 0
-538 -918 553 0
538 918 -553 0
-538 -919 554 0
538 919 -554 0
-538 -920 555 0
538 920 -555 0
-538 -921 556 0
538 921 -556 0
-538 -922 557 0
538 922 -557 0
-538 -923 558 0
538 923 -558 0
-538 -924 559 0
538 924 -559 0
-538 -925 560 0
538 925 -560 0
-538 -926 561 0
538 926 -561 0
-538 -927 562 0
538 927 -562 0
-538 -928 563 0
538 928 -563 0
-538 -929 564 0
538 929 -564 0
-538 -930 565 0
538 930 -565 0
-538 -931 566 0
538 931 -566 0
-538 -932 567 0
538 932 -567 0
-538 -933 568 0
538 933 -568 0
-538 -934 569 0
538 934 -569 0
-538 -935 570 0
538 935 -570 0
-539 -936 540 0
539 936 -540 0
-539 -937 541 0
539 937 -541 0
-539 -938 542 0
539 938 -542 0
-539 -939 543 0
539 939 -543 0
-539 -940 544 0
539 940 -544 0
-539 -941 545 0
539 941 -545 0
-539 -942 546 0
539 942 -546 0
-539 -943 547 0
539 943 -547 0
-539 -944 548 0
539 944 -548 0
-539 -945 549 0
539 945 -549 0
-539 -946 550 0
539 946 -550 0
-539 -947 551 0
539 947 -551 0
-539 -948 552 0
539 948 -552 0
-539 -949 553 0
539 949 -553 0
-539 -950 554 0
539 950 -554 0
-539 -951 555 0
539 951 -555 0
-539 -952 556 0
539 952 -556 0
-539 -953 557 0
539 953 -557 0
-539 -954 558 0
539 954 -558 0
-539 -955 559 0
539 955 -559 0
-539 -956 560 0
539 956 -560 0
-539 -957 561 0
539 957 -561 0
-539 -958 562 0
539 958 -562 0
-539 -959 563 0
539 959 -563 0
-539 -960 564 0
539 960 -564 0
-539 -961 565 0
539 961 -565 0
-539 -962 566 0
539 962 -566 0
-539 -963 567 0
539 963 -567 0
-539 -964 568 0
539 964 -568 0
-539 -965 569 0
539 965 -569 0
-539 -966 570 0
539 966 -570 0
-540 -967 541 0
540 967 -541 0
-540 -968 542 0
540 968 -542 0
-540 -969 543 0
540 969 -543 0
-540 -970 544 0
540 970 -544 0
-540 -971 545 0
540 971 -545 0
-540 -972 546 0
540 972 -546 0
-540 -973 547 0
540 973 -547 0
-540 -974 548 0
540 974 -548 0
-540 -975 549 0
540 975 -549 0
-540 -976 550 0
540 976 -550 0
-540 -977 551 0
540 977 -551 0
-540 -978 552 0
540 978 -552 0
-540 -979 553 0
540 979 -553 0
-540 -980 554 0
540 980 -554 0
-540 -981 555 0
540 981 -555 0
-540 -982 556 0
540 982 -556 0
-540 -983 557 0
540 983 -557 0
-540 -984 558 0
540 984 -558 0
-540 -985 559 0
540 985 -559 0
-540 -986 560 0
540 986 -560 0
-540 -987 561 0
540 987 -561 0
-540 -988 562 0
540 988 -562 0
-540 -989 563 0
540 989 -563 0
-540 -990 564 0
540 990 -564 0
-540 -991 565 0
540 991 -565 0
-540 -992 566 0
540 992 -566 0
-540 -993 567 0
540 993 -567 0
-540 -994 568 0
540 994 -568 0
-540 -995 569 0
540 995 -569 0
-540 -996 570 0
540 996 -570 0
-541 -997 542 0
541 997 -542 0
-541 -998 543 0
541 998 -543 0
-541 -999 544 0
541 999 -544 0
-541 -1000 545 0
541 1000 -545 0
-541 -1001 546 0
541 1001 -546 0
-541 -1002 547 0
541 1002 -547 0
-541 -1003 548 0
541 1003 -548 0
-541 -1004 549 0
541 1004 -549 0
-541 -1005 550 0
541 1005 -550 0
-541 -1006 551 0
541 1006 -551 0
-541 -1007 552 0
541 1007 -552 0
-541 -1008 553 0
541 1008 -553 0
-541 -1009 554 0
541 1009 -554 0
-541 -1010 555 0
541 1010 -555 0
-541 -1011 556 0
541 1011 -556 0
-541 -1012 557 0
541 1012 -557 0
-541 -1013 558 0
541 1013 -558 0
-541 -1014 559 0
541 1014 -559 0
-541 -1015 560 0
541 1015 -560 0
-541 -1016 561 0
541 1016 -561 0
-541 -1017 562 0
541 1017 -562 0
-541 -1018 563 0
541 1018 -563 0
-541 -1019 564 0
541 1019 -564 0
-541 -1020 565 0
541 1020 -565 0
-541 -1021 566 0
541 1021 -566 0
-541 -1022 567 0
541 1022 -567 0
-541 -1023 568 0
541 1023 -568 0
-541 -1024 569 0
541 1024 -569 0
-541 -1025 570 0
541 1025 -570 0
-542 -1026 543 0
542 1026 -543 0
-542 -1027 544 0
542 1027 -544 0
-542 -1028 545 0
542 1028 -545 0
-542 -1029 546 0
542 1029 -546 0
-542 -1030 547 0
542 1030 -547 0
-542 -1031 548 0
542 1031 -548 0
-542 -1032 549 0
542 1032 -549 0
-542 -1033 550 0
542 1033 -550 0
-542 -1034 551 0
542 1034 -551 0
-542 -1035 552 0
542 1035 -552 0
-542 -1036 553 0
542 1036 -553 0
-542 -1037 554 0
542 1037 -554 0
-542 -1038 555 0
542 1038 -555 0
-542 -1039 556 0
542 1039 -556 0
-542 -1040 557 0
542 1040 -557 0
-542 -1041 558 0
542 1041 -558 0
-542 -1042 559 0
542 1042 -559 0
-542 -1043 560 0
542 1043 -560 0
-542 -1044 561 0
542 1044 -561 0
-542 -1045 562 0
542 1045 -562 0
-542 -1046 563 0
542 1046 -563 0
-542 -1047 564 0
542 1047 -564 0
-542 -1048 565 0
542 1048 -565 0
-542 -1049 566 0
542 1049 -566 0
-542 -1050 567 0
542 1050 -567 0
-542 -1051 568 0
542 1051 -568 0
-542 -1052 569 0
542 1052 -569 0
-542 -1053 570 0
542 1053 -570 0
-543 -1054 544 0
543 1054 -544 0
-543 -1055 545 0
543 1055 -545 0
-543 -1056 546 0
543 1056 -546 0
-543 -1057 547 0
543 1057 -547 0
-543 -1058 548 0
543 1058 -548 0
-543 -1059 549 0
543 1059 -549 0
-543 -1060 550 0
543 1060 -550 0
-543 -1061 551 0
543 1061 -551 0
-543 -1062 552 0
543 1062 -552 0
-543 -1063 553 0
543 1063 -553 0
-543 -1064 554 0
543 1064 -554 0
-543 -1065 555 0
543 1065 -555 0
-543 -1066 556 0
543 1066 -556 0
-543 -1067 557 0
543 1067 -557 0
-543 -1068 558 0
543 1068 -558 0
-543 -1069 559 0
543 1069 -559 0
-543 -1070 560 0
543 1070 -560 0
-543 -1071 561 0
543 1071 -561 0
-543 -1072 562 0
543 1072 -562 0
-543 -1073 563 0
543 1073 -563 0
-543 -1074 564 0
543 1074 -564 0
-543 -1075 565 0
543 1075 -565 0
-543 -1076 566 0
543 1076 -566 0
-543 -1077 567 0
543 1077 -567 0
-543 -1078 568 0
543 1078 -568 0
-543 -1079 569 0
543 1079 -569 0
-543 -1080 570 0
543 1080 -570 0
-544 -1081 545 0
544 1081 -545 0
-544 -1082 546 0
544 1082 -546 0
-544 -1083 547 0
544 1083 -547 0
-544 -1084 548 0
544 1084 -548 0
-544 -1085 549 0
544 1085 -549 0
-544 -1086 550 0
544 1086 -550 0
-544 -1087 551 0
544 1087 -551 0
-544 -1088 552 0
544 1088 -552 0
-544 -1089 553 0
544 1089 -553 0
-544 -1090 554 0
544 1090 -554 0
-544 -1091 555 0
544 1091 -555 0
-544 -1092 556 0
544 1092 -556 0
-544 -1093 557 0
544 1093 -557 0
-544 -1094 558 0
544 1094 -558 0
-544 -1095 559 0
544 1095 -559 0
-544 -1096 560 0
544 1096 -560 0
-544 -1097 561 0
544 1097 -561 0
-544 -1098 562 0
544 1098 -562 0
-544 -1099 563 0
544 1099 -563 0
-544 -1100 564 0
544 1100 -564 0
-544 -1101 565 0
544 1101 -565 0
-544 -1102 566 0
544 1102 -566 0
-544 -1103 567 0
544 1103 -567 0
-544 -1104 568 0
544 1104 -568 0
-544 -1105 569 0
544 1105 -569 0
-544 -1106 570 0
544 1106 -570 0
-545 -1107 546 0
545 1107 -546 0
-545 -1108 547 0
545 1108 -547 0
-545 -1109 548 0
545 1109 -548 0
-545 -1110 549 0
545 1110 -549 0
-545 -1111 550 0
545 1111 -550 0
-545 -1112 551 0
545 1112 -551 0
-545 -1113 552 0
545 1113 -552 0
-545 -1114 553 0
545 1114 -553 0
-545 -1115 554 0
545 1115 -554 0
-545 -1116 555 0
545 1116 -555 0
-545 -1117 556 0
545 1117 -556 0
-545 -1118 557 0
545 1118 -557 0
-545 -1119 558 0
545 1119 -558 0
-545 -1120 559 0
545 1120 -559 0
-545 -1121 560 0
545 1121 -560 0
-545 -1122 561 0
545 1122 -561 0
-545 -1123 562 0
545 1123 -562 0
-545 -1124 563 0
545 1124 -563 0
-545 -1125 564 0
545 1125 -564 0
-545 -1126 565 0
545 1126 -565 0
-545 -1127 566 0
545 1127 -566 0
-545 -1128 567 0
545 1128 -567 0
-545 -1129 568 0
545 1129 -568 0
-545 -1130 569 0
545 1130 -569 0
-545 -1131 570 0
545 1131 -570 0
-546 -1132 547 0
546 1132 -547 0
-546 -1133 548 0
546 1133 -548 0
-546 -1134 549 0
546 1134 -549 0
-546 -1135 550 0
546 1135 -550 0
-546 -1136 551 0
546 1136 -551 0
-546 -1137 552 0
546 1137 -552 0
-546 -1138 553 0
546 1138 -553 0
-546 -1139 554 0
546 1139 -554 0
-546 -1140 555 0
546 1140 -555 0
-546 -1141 556 0
546 1141 -556 0
-546 -1142 557 0
546 1142 -557 0
-546 -1143 558 0
546 1143 -558 0
-546 -1144 559 0
546 1144 -559 0
-546 -1145 560 0
546 1145 -560 0
-546 -1146 561 0
546 1146 -561 0
-546 -1147 562 0
546 1147 -562 0
-546 -1148 563 0
546 1148 -563 0
-546 -1149 564 0
546 1149 -564 0
-546 -1150 565 0
546 1150 -565 0
-546 -1151 566 0
546 1151 -566 0
-546 -1152 567 0
546 1152 -567 0
-546 -1153 568 0
546 1153 -568 0
-546 -1154 569 0
546 1154 -569 0
-546 -1155 570 0
546 1155 -570 0
-547 -1156 548 0
547 1156 -548 0
-547 -1157 549 0
547 1157 -549 0
-547 -1158 550 0
547 1158 -550 0
-547 -1159 551 0
547 1159 -551 0
-547 -1160 552 0
547 1160 -552 0
-547 -1161 553 0
547 1161 -553 0
-547 -1162 554 0
547 1162 -554 0
-547 -1163 555 0
547 1163 -555 0
-547 -1164 556 0
547 1164 -556 0
-547 -1165 557 0
547 1165 -557 0
-547 -1166 558 0
547 1166 -558 0
-547 -1167 559 0
547 1167 -559 0
-547 -1168 560 0
547 1168 -560 0
-547 -1169 561 0
547 1169 -561 0
-547 -1170 562 0
547 1170 -562 0
-547 -1171 563 0
547 1171 -563 0
-547 -1172 564 0
547 1172 -564 0
-547 -1173 565 0
547 1173 -565 0
-547 -1174 566 0
547 1174 -566 0
-547 -1175 567 0
547 1175 -567 0
-547 -1176 568 0
547 1176 -568 0
-547 -1177 569 0
547 1177 -569 0
-547 -1178 570 0
547 1178 -570 0
-548 -1179 549 0
548 1179 -549 0
-548 -1180 550 0
548 1180 -550 0
-548 -1181 551 0
548 1181 -551 0
-548 -1182 552 0
548 1182 -552 0
-548 -1183 553 0
548 1183 -553 0
-548 -1184 554 0
548 1184 -554 0
-548 -1185 555 0
548 1185 -555 0
-548 -1186 556 0
548 1186 -556 0
-548 -1187 557 0
548 1187 -557 0
-548 -1188 558 0
548 1188 -558 0
-548 -1189 559 0
548 1189 -559 0
-548 -1190 560 0
548 1190 -560 0
-548 -1191 561 0
548 1191 -561 0
-548 -1192 562 0
548 1192 -562 0
-548 -1193 563 0
548 1193 -563 0
-548 -1194 564 0
548 1194 -564 0
-548 -1195 565 0
548 1195 -565 0
-548 -1196 566 0
548 1196 -566 0
-548 -1197 567 0
548 1197 -567 0
-548 -1198 568 0
548 1198 -568 0
-548 -1199 569 0
548 1199 -569 0
-548 -1200 570 0
548 1200 -570 0
-549 -1201 550 0
549 1201 -550 0
-549 -1202 551 0
549 1202 -551 0
-549 -1203 552 0
549 1203 -552 0
-549 -1204 553 0
549 1204 -553 0
-549 -1205 554 0
549 1205 -554 0
-549 -1206 555 0
549 1206 -555 0
-549 -1207 556 0
549 1207 -556 0
-549 -1208 557 0
549 1208 -557 0
-549 -1209 558 0
549 1209 -558 0
-549 -1210 559 0
549 1210 -559 0
-549 -1211 560 0
549 1211 -560 0
-549 -1212 561 0
549 1212 -561 0
-549 -1213 562 0
549 1213 -562 0
-549 -1214 563 0
549 1214 -563 0
-549 -1215 564 0
549 1215 -564 0
-549 -1216 565 0
549 1216 -565 0
-549 -1217 566 0
549 1217 -566 0
-549 -1218 567 0
549 1218 -567 0
-549 -1219 568 0
549 1219 -568 0
-549 -1220 569 0
549 1220 -569 0
-549 -1221 570 0
549 1221 -570 0
-550 -1222 551 0
550 1222 -551 0
-550 -1223 552 0
550 1223 -552 0
-550 -1224 553 0
550 1224 -553 0
-550 -1225 554 0
550 1225 -554 0
-550 -1226 555 0
550 1226 -555 0
-550 -1227 556 0
550 1227 -556 0
-550 -1228 557 0
550 1228 -557 0
-550 -1229 558 0
550 1229 -558 0
-550 -1230 559 0
550 1230 -559 0
-550 -1231 560 0
550 1231 -560 0
-550 -1232 561 0
550 1232 -561 0
-550 -1233 562 0
550 1233 -562 0
-550 -1234 563 0
550 1234 -563 0
-550 -1235 564 0
550 1235 -564 0
-550 -1236 565 0
550 1236 -565 0
-550 -1237 566 0
550 1237 -566 0
-550 -1238 567 0
550 1238 -567 0
-550 -1239 568 0
550 1239 -568 0
-550 -1240 569 0
550 1240 -569 0
-550 -1241 570 0
550 1241 -570 0
-551 -1242 552 0
551 1242 -552 0
-551 -1243 553 0
551 1243 -553 0
-551 -1244 554 0
551 1244 -554 0
-551 -1245 555 0
551 1245 -555 0
-551 -1246 556 0
551 1246 -556 0
-551 -1247 557 0
551 1247 -557 0
-551 -1248 558 0
551 1248 -558 0
-551 -1249 559 0
551 1249 -559 0
-551 -1250 560 0
551 1250 -560 0
-551 -1251 561 0
551 1251 -561 0
-551 -1252 562 0
551 1252 -562 0
-551 -1253 563 0
551 1253 -563 0
-551 -1254 564 0
551 1254 -564 0
-551 -1255 565 0
551 1255 -565 0
-551 -1256 566 0
551 1256 -566 0
-551 -1257 567 0
551 1257 -567 0
-551 -1258 568 0
551 1258 -568 0
-551 -1259 569 0
551 1259 -569 0
-551 -1260 570 0
551 1260 -570 0
-552 -1261 553 0
552 1261 -553 0
-552 -1262 554 0
552 1262 -554 0
-552 -1263 555 0
552 1263 -555 0
-552 -1264 556 0
552 1264 -556 0
-552 -1265 557 0
552 1265 -557 0
-552 -1266 558 0
552 1266 -558 0
-552 -1267 559 0
552 1267 -559 0
-552 -1268 560 0
552 1268 -560 0
-552 -1269 561 0
552 1269 -561 0
-552 -1270 562 0
552 1270 -562 0
-552 -1271 563 0
552 1271 -563 0
-552 -1272 564 0
552 1272 -564 0
-552 -1273 565 0
552 1273 -565 0
-552 -1274 566 0
552 1274 -566 0
-552 -1275 567 0
552 1275 -567 0
-552 -1276 568 0
552 1276 -568 0
-552 -1277 569 0
552 1277 -569 0
-552 -1278 570 0
552 1278 -570 0
-553 -1279 554 0
553 1279 -554 0
-553 -1280 555 0
553 1280 -555 0
-553 -1281 556 0
553 1281 -556 0
-553 -1282 557 0
553 1282 -557 0
-553 -1283 558 0
553 1283 -558 0
-553 -1284 559 0
553 1284 -559 0
-553 -1285 560 0
553 1285 -560 0
-553 -1286 561 0
553 1286 -561 0
-553 -1287 562 0
553 1287 -562 0
-553 -1288 563 0
553 1288 -563 0
-553 -1289 564 0
553 1289 -564 0
-553 -1290 565 0
553 1290 -565 0
-553 -1291 566 0
553 1291 -566 0
-553 -1292 567 0
553 1292 -567 0
-553 -1293 568 0
553 1293 -568 0
-553 -1294 569 0
553 1294 -569 0
-553 -1295 570 0
553 1295 -570 0
-554 -1296 555 0
554 1296 -555 0
-554 -1297 556 0
554 1297 -556 0
-554 -1298 557 0
554 1298 -557 0
-554 -1299 558 0
554 1299 -558 0
-554 -1300 559 0
554 1300 -559 0
-554 -1301 560 0
554 1301 -560 0
-554 -1302 561 0
554 1302 -561 0
-554 -1303 562 0
554 1303 -562 0
-554 -1304 563 0
554 1304 -563 0
-554 -1305 564 0
554 1305 -564 0
-554 -1306 565 0
554 1306 -565 0
-554 -1307 566 0
554 1307 -566 0
-554 -1308 567 0
554 1308 -567 0
-554 -1309 568 0
554 1309 -568 0
-554 -1310 569 0
554 1310 -569 0
-554 -1311 570 0
554 1311 -570 0
-555 -1312 556 0
555 1312 -556 0
-555 -1313 557 0
555 1313 -557 0
-555 -1314 558 0
555 1314 -558 0
-555 -1315 559 0
555 1315 -559 0
-555 -1316 560 0
555 1316 -560 0
-555 -1317 561 0
555 1317 -561 0
-555 -1318 562 0
555 1318 -562 0
-555 -1319 563 0
555 1319 -563 0
-555 -1320 564 0
555 1320 -564 0
-555 -1321 565 0
555 1321 -565 0
-555 -1322 566 0
555 1322 -566 0
-555 -1323 567 0
555 1323 -567 0
-555 -1324 568 0
555 1324 -568 0
-555 -1325 569 0
555 1325 -569 0
-555 -1326 570 0
555 1326 -570 0
-556 -1327 557 0
556 1327 -557 0
-556 -1328 558 0
556 1328 -558 0
-556 -1329 559 0
556 1329 -559 0
-556 -1330 560 0
556 1330 -560 0
-556 -1331 561 0
556 1331 -561 0
-556 -1332 562 0
556 1332 -562 0
-556 -1333 563 0
556 1333 -563 0
-556 -1334 564 0
556 1334 -564 0
-556 -1335 565 0
556 1335 -565 0
-556 -1336 566 0
556 1336 -566 0
-556 -1337 567 0
556 1337 -567 0
-556 -1338 568 0
556 1338 -568 0
-556 -1339 569 0
556 1339 -569 0
-556 -1340 570 0
556 1340 -570 0
-557 -1341 558 0
557 1341 -558 0
-557 -1342 559 0
557 1342 -559 0
-557 -1343 560 0
557 1343 -560 0
-557 -1344 561 0
557 1344 -561 0
-557 -1345 562 0
557 1345 -562 0
-557 -1346 563 0
557 1346 -563 0
-557 -1347 564 0
557 1347 -564 0
-557 -1348 565 0
557 1348 -565 0
-557 -1349 566 0
557 1349 -566 0
-557 -1350 567 0
557 1350 -567 0
-557 -1351 568 0
557 1351 -568 0
-557 -1352 569 0
557 1352 -569 0
-557 -1353 570 0
557 1353 -570 0
-558 -1354 559 0
558 1354 -559 0
-558 -1355 560 0
558 1355 -560 0
-558 -1356 561 0
558 1356 -561 0
-558 -1357 562 0
558 1357 -562 0
-558 -1358 563 0
558 1358 -563 0
-558 -1359 564 0
558 1359 -564 0
-558 -1360 565 0
558 1360 -565 0
-558 -1361 566 0
558 1361 -566 0
-558 -1362 567 0
558 1362 -567 0
-558 -1363 568 0
558 1363 -568 0
-558 -1364 569 0
558 1364 -569 0
-558 -1365 570 0
558 1365 -570 0
-559 -1366 560 0
559 1366 -560 0
-559 -1367 561 0
559 1367 -561 0
-559 -1368 562 0
559 1368 -562 0
-559 -1369 563 0
559 1369 -563 0
-559 -1370 564 0
559 1370 -564 0
-559 -1371 565 0
559 1371 -565 0
-559 -1372 566 0
559 1372 -566 0
-559 -1373 567 0
559 1373 -567 0
-559 -1374 568 0
559 1374 -568 0
-559 -1375 569 0
559 1375 -569 0
-559 -1376 570 0
559 1376 -570 0
-560 -1377 561 0
560 1377 -561 0
-560 -1378 562 0
560 1378 -562 0
-560 -1379 563 0
560 1379 -563 0
-560 -1380 564 0
560 1380 -564 0
-560 -1381 565 0
560 1381 -565 0
-560 -1382 566 0
560 1382 -566 0
-560 -1383 567 0
560 1383 -567 0
-560 -1384 568 0
560 1384 -568 0
-560 -1385 569 0
560 1385 -569 0
-560 -1386 570 0
560 1386 -570 0
-561 -1387 562 0
561 1387 -562 0
-561 -1388 563 0
561 1388 -563 0
-561 -1389 564 0
561 1389 -564 0
-561 -1390 565 0
561 1390 -565 0
-561 -1391 566 0
561 1391 -566 0
-561 -1392 567 0
561 1392 -567 0
-561 -1393 568 0
561 1393 -568 0
-561 -1394 569 0
561 1394 -569 0
-561 -1395 570 0
561 1395 -570 0
-562 -1396 563 0
562 1396 -563 0
-562 -1397 564 0
562 1397 -564 0
-562 -1398 565 0
562 1398 -565 0
-562 -1399 566 0
562 1399 -566 0
-562 -1400 567 0
562 1400 -567 0
-562 -1401 568 0
562 1401 -568 0
-562 -1402 569 0
562 1402 -569 0
-562 -1403 570 0
562 1403 -570 0
-563 -1404 564 0
563 1404 -564 0
-563 -1405 565 0
563 1405 -565 0
-563 -1406 566 0
563 1406 -566 0
-563 -1407 567 0
563 1407 -567 0
-563 -1408 568 0
563 1408 -568 0
-563 -1409 569 0
563 1409 -569 0
-563 -1410 570 0
563 1410 -570 0
-564 -1411 565 0
564 1411 -565 0
-564 -1412 566 0
564 1412 -566 0
-564 -1413 567 0
564 1413 -567 0
-564 -1414 568 0
564 1414 -568 0
-564 -1415 569 0
564 1415 -569 0
-564 -1416 570 0
564 1416 -570 0
-565 -1417 566 0
565 1417 -566 0
-565 -1418 567 0
565 1418 -567 0
-565 -1419 568 0
565 1419 -568 0
-565 -1420 569 0
565 1420 -569 0
-565 -1421 570 0
565 1421 -570 0
-566 -1422 567 0
566 1422 -567 0
-566 -1423 568 0
566 1423 -568 0
-566 -1424 569 0
566 1424 -569 0
-566 -1425 570 0
566 1425 -570 0
-567 -1426 568 0
567 1426 -568 0
-567 -1427 569 0
567 1427 -569 0
-567 -1428 570 0
567 1428 -570 0
-568 -1429 569 0
568 1429 -569 0
-568 -1430 570 0
568 1430 -570 0
-569 -1431 570 0
569 1431 -570 0
-571 -612 572 0
571 612 -572 0
-571 -613 573 0
571 613 -573 0
-571 -614 574 0
571 614 -574 0
-571 -615 575 0
571 615 -575 0
-571 -616 576 0
571 616 -576 0
-571 -617 577 0
571 617 -577 0
-571 -618 578 0
571 618 -578 0
-571 -619 579 0
571 619 -579 0
-571 -620 580 0
571 620 -580 0
-571 -621 581 0
571 621 -581 0
-571 -622 582 0
571 622 -582 0
-571 -623 583 0
571 623 -583 0
-571 -624 584 0
571 624 -584 0
-571 -625 585 0
571 625 -585 0
-571 -626 586 0
571 626 -586 0
-571 -627 587 0
571 627 -587 0
-571 -628 588 0
571 628 -588 0
-571 -629 589 0
571 629 -589 0
-571 -630 590 0
571 630 -590 0
-571 -631 591 0
571 631 -591 0
-571 -632 592 0
571 632 -592 0
-571 -633 593 0
571 633 -593 0
-571 -634 594 0
571 634 -594 0
-571 -635 595 0
571 635 -595 0
-571 -636 596 0
571 636 -596 0
-571 -637 597 0
571 637 -597 0
-571 -638 598 0
571 638 -598 0
-571 -639 599 0
571 639 -599 0
-571 -640 600 0
571 640 -600 0
-571 -641 601 0
571 641 -601 0
-571 -642 602 0
571 642 -602 0
-571 -643 603 0
571 643 -603 0
-571 -644 604 0
571 644 -604 0
-571 -645 605 0
571 645 -605 0
-571 -646 606 0
571 646 -606 0
-571 -647 607 0
571 647 -607 0
-571 -648 608 0
571 648 -608 0
-571 -649 609 0
571 649 -609 0
-571 -650 610 0
571 650 -610 0
-571 -651 611 0
571 651 -611 0
-572 -652 573 0
572 652 -573 0
-572 -653 574 0
572 653 -574 0
-572 -654 575 0
572 654 -575 0
-572 -655 576 0
572 655 -576 0
-572 -656 577 0
572 656 -577 0
-572 -657 578 0
572 657 -578 0
-572 -658 579 0
572 658 -579 0
-572 -659 580 0
572 659 -580 0
-572 -660 581 0
572 660 -581 0
-572 -661 582 0
572 661 -582 0
-572 -662 583 0
572 662 -583 0
-572 -663 584 0
572 663 -584 0
-572 -664 585 0
572 664 -585 0
-572 -665 586 0
572 665 -586 0
-572 -666 587 0
572 666 -587 0
-572 -667 588 0
572 667 -588 0
-572 -668 589 0
572 668 -589 0
-572 -669 590 0
572 669 -590 0
-572 -670 591 0
572 670 -591 0
-572 -671 592 0
572 671 -592 0
-572 -672 593 0
572 672 -593 0
-572 -673 594 0
572 673 -594 0
-572 -674 595 0
572 674 -595 0
-572 -675 596 0
572 675 -596 0
-572 -676 597 0
572 676 -597 0
-572 -677 598 0
572 677 -598 0
-572 -678 599 0
572 678 -599 0
-572 -679 600 0
572 679 -600 0
-572 -680 601 0
572 680 -601 0
-572 -681 602 0
572 681 -602 0
-572 -682 603 0
572 682 -603 0
-572 -683 604 0
572 683 -604 0
-572 -684 605 0
572 684 -605 0
-572 -685 606 0
572 685 -606 0
-572 -686 607 0
572 686 -607 0
-572 -687 608 0
572 687 -608 0
-572 -688 609 0
572 688 -609 0
-572 -689 610 0
572 689 -610 0
-572 -690 611 0
572 690 -611 0
-573 -691 574 0
573 691 -574 0
-573 -692 575 0
573 692 -575 0
-573 -693 576 0
573 693 -576 0
-573 -694 577 0
573 694 -577 0
-573 -695 578 0
573 695 -578 0
-573 -696 579 0
573 696 -579 0
-573 -697 580 0
573 697 -580 0
-573 -698 581 0
573 698 -581 0
-573 -699 582 0
573 699 -582 0
-573 -700 583 0
573 700 -583 0
-573 -701 584 0
573 701 -584 0
-573 -702 585 0
573 702 -585 0
-573 -703 586 0
573 703 -586 0
-573 -704 587 0
573 704 -587 0
-573 -705 588 0
573 705 -588 0
-573 -706 589 0
573 706 -589 0
-573 -707 590 0
573 707 -590 0
-573 -708 591 0
573 708 -591 0
-573 -709 592 0
573 709 -592 0
-573 -710 593 0
573 710 -593 0
-573 -711 594 0
573 711 -594 0
-573 -712 595 0
573 712 -595 0
-573 -713 596 0
573 713 -596 0
-573 -714 597 0
573 714 -597 0
-573 -715 598 0
573 715 -598 0
-573 -716 599 0
573 716 -599 0
-573 -717 600 0
573 717 -600 0
-573 -718 601 0
573 718 -601 0
-573 -719 602 0
573 719 -602 0
-573 -720 603 0
573 720 -603 0
-573 -721 604 0
573 721 -604 0
-573 -722 605 0
573 722 -605 0
-573 -723 606 0
573 723 -606 0
-573 -724 607 0
573 724 -607 0
-573 -725 608 0
573 725 -608 0
-573 -726 609 0
573 726 -609 0
-573 -727 610 0
573 727 -610 0
-573 -728 611 0
573 728 -611 0
-574 -729 575 0
574 729 -575 0
-574 -730 576 0
574 730 -576 0
-574 -731 577 0
574 731 -577 0
-574 -732 578 0
574 732 -578 0
-574 -733 579 0
574 733 -579 0
-574 -734 580 0
574 734 -580 0
-574 -735 581 0
574 735 -581 0
-574 -736 582 0
574 736 -582 0
-574 -737 583 0
574 737 -583 0
-574 -738 584 0
574 738 -584 0
-574 -739 585 0
574 739 -585 0
-574 -740 586 0
574 740 -586 0
-574 -741 587 0
574 741 -587 0
-574 -742 588 0
574 742 -588 0
-574 -743 589 0
574 743 -589 0
-574 -744 590 0
574 744 -590 0
-574 -745 591 0
574 745 -591 0
-574 -746 592 0
574 746 -592 0
-574 -747 593 0
574 747 -593 0
-574 -748 594 0
574 748 -594 0
-574 -749 595 0
574 749 -595 0
-574 -750 596 0
574 750 -596 0
-574 -751 597 0
574 751 -597 0
-574 -752 598 0
574 752 -598 0
-574 -753 599 0
574 753 -599 0
-574 -754 600 0
574 754 -600 0
-574 -755 601 0
574 755 -601 0
-574 -756 602 0
574 756 -602 0
-574 -757 603 0
574 757 -603 0
-574 -758 604 0
574 758 -604 0
-574 -759 605 0
574 759 -605 0
-574 -760 606 0
574 760 -606 0
-574 -761 607 0
574 761 -607 0
-574 -762 608 0
574 762 -608 0
-574 -763 609 0
574 763 -609 0
-574 -764 610 0
574 764 -610 0
-574 -765 611 0
574 765 -611 0
-575 -766 576 0
575 766 -576 0
-575 -767 577 0
575 767 -577 0
-575 -768 578 0
575 768 -578 0
-575 -769 579 0
575 769 -579 0
-575 -770 580 0
575 770 -580 0
-575 -771 581 0
575 771 -581 0
-575 -772 582 0
575 772 -582 0
-575 -773 583 0
575 773 -583 0
-575 -774 584 0
575 774 -584 0
-575 -775 585 0
575 775 -585 0
-575 -776 586 0
575 776 -586 0
-575 -777 587 0
575 777 -587 0
-575 -778 588 0
575 778 -588 0
-575 -779 589 0
575 779 -589 0
-575 -780 590 0
575 780 -590 0
-575 -781 591 0
575 781 -591 0
-575 -782 592 0
575 782 -592 0
-575 -783 593 0
575 783 -593 0
-575 -784 594 0
575 784 -594 0
-575 -785 595 0
575 785 -595 0
-575 -786 596 0
575 786 -596 0
-575 -787 597 0
575 787 -597 0
-575 -788 598 0
575 788 -598 0
-575 -789 599 0
575 789 -599 0
-575 -790 600 0
575 790 -600 0
-575 -791 601 0
575 791 -601 0
-575 -792 602 0
575 792 -602 0
-575 -793 603 0
575 793 -603 0
-575 -794 604 0
575 794 -604 0
-575 -795 605 0
575 795 -605 0
-575 -796 606 0
575 796 -606 0
-575 -797 607 0
575 797 -607 0
-575 -798 608 0
575 798 -608 0
-575 -799 609 0
575 799 -609 0
-575 -800 610 0
575 800 -610 0
-575 -801 611 0
575 801 -611 0
-576 -802 577 0
576 802 -577 0
-576 -803 578 0
576 803 -578 0
-576 -804 579 0
576 804 -579 0
-576 -805 580 0
576 805 -580 0
-576 -806 581 0
576 806 -581 0
-576 -807 582 0
576 807 -582 0
-576 -808 583 0
576 808 -583 0
-576 -809 584 0
576 809 -584 0
-576 -810 585 0
576 810 -585 0
-576 -811 586 0
576 811 -586 0
-576 -812 587 0
576 812 -587 0
-576 -813 588 0
576 813 -588 0
-576 -814 589 0
576 814 -589 0
-576 -815 590 0
576 815 -590 0
-576 -816 591 0
576 816 -591 0
-576 -817 592 0
576 817 -592 0
-576 -818 593 0
576 818 -593 0
-576 -819 594 0
576 819 -594 0
-576 -820 595 0
576 820 -595 0
-576 -821 596 0
576 821 -596 0
-576 -822 597 0
576 822 -597 0
-576 -823 598 0
576 823 -598 0
-576 -824 599 0
576 824 -599 0
-576 -825 600 0
576 825 -600 0
-576 -826 601 0
576 826 -601 0
-576 -827 602 0
576 827 -602 0
-576 -828 603 0
576 828 -603 0
-576 -829 604 0
576 829 -604 0
-576 -830 605 0
576 830 -605 0
-576 -831 606 0
576 831 -606 0
-576 -832 607 0
576 832 -607 0
-576 -833 608 0
576 833 -608 0
-576 -834 609 0
576 834 -609 0
-576 -835 610 0
576 835 -610 0
-576 -836 611 0
576 836 -611 0
-577 -837 578 0
577 837 -578 0
-577 -838 579 0
577 838 -579 0
-577 -839 580 0
577 839 -580 0
-577 -840 581 0
577 840 -581 0
-577 -841 582 0
577 841 -582 0
-577 -842 583 0
577 842 -583 0
-577 -843 584 0
577 843 -584 0
-577 -844 585 0
577 844 -585 0
-577 -845 586 0
577 845 -586 0
-577 -846 587 0
577 846 -587 0
-577 -847 588 0
577 847 -588 0
-577 -848 589 0
577 848 -589 0
-577 -849 590 0
577 849 -590 0
-577 -850 591 0
577 850 -591 0
-577 -851 592 0
577 851 -592 0
-577 -852 593 0
577 852 -593 0
-577 -853 594 0
577 853 -594 0
-577 -854 595 0
577 854 -595 0
-577 -855 596 0
577 855 -596 0
-577 -856 597 0
577 856 -597 0
-577 -857 598 0
577 857 -598 0
-577 -858 599 0
577 858 -599 0
-577 -859 600 0
577 859 -600 0
-577 -860 601 0
577 860 -601 0
-577 -861 602 0
577 861 -602 0
-577 -862 603 0
577 862 -603 0
-577 -863 604 0
577 863 -604 0
-577 -864 605 0
577 864 -605 0
-577 -865 606 0
577 865 -606 0
-577 -866 607 0
577 866 -607 0
-577 -867 608 0
577 867 -608 0
-577 -868 609 0
577 868 -609 0
-577 -869 610 0
577 869 -610 0
-577 -870 611 0
577 870 -611 0
-578 -871 579 0
578 871 -579 0
-578 -872 580 0
578 872 -580 0
-578 -873 581 0
578 873 -581 0
-578 -874 582 0
578 874 -582 0
-578 -875 583 0
578 875 -583 0
-578 -876 584 0
578 876 -584 0
-578 -877 585 0
578 877 -585 0
-578 -878 586 0
578 878 -586 0
-578 -879 587 0
578 879 -587 0
-578 -880 588 0
578 880 -588 0
-578 -881 589 0
578 881 -589 0
-578 -882 590 0
578 882 -590 0
-578 -883 591 0
578 883 -591 0
-578 -884 592 0
578 884 -592 0
-578 -885 593 0
578 885 -593 0
-578 -886 594 0
578 886 -594 0
-578 -887 595 0
578 887 -595 0
-578 -888 596 0
578 888 -596 0
-578 -889 597 0
578 889 -597 0
-578 -890 598 0
578 890 -598 0
-578 -891 599 0
578 891 -599 0
-578 -892 600 0
578 892 -600 0
-578 -893 601 0
578 893 -601 0
-578 -894 602 0
578 894 -602 0
-578 -895 603 0
578 895 -603 0
-578 -896 604 0
578 896 -604 0
-578 -897 605 0
578 897 -605 0
-578 -898 606 0
578 898 -606 0
-578 -899 607 0
578 899 -607 0
-578 -900 608 0
578 900 -608 0
-578 -901 609 0
578 901 -609 0
-578 -902 610 0
578 902 -610 0
-578 -903 611 0
578 903 -611 0
-579 -904 580 0
579 904 -580 0
-579 -905 581 0
579 905 -581 0
-579 -906 582 0
579 906 -582 0
-579 -907 583 0
579 907 -583 0
-579 -908 584 0
579 908 -584 0
-579 -909 585 0
579 909 -585 0
-579 -910 586 0
579 910 -586 0
-579 -911 587 0
579 911 -587 0
-579 -912 588 0
579 912 -588 0
-579 -913 589 0
579 913 -589 0
-579 -914 590 0
579 914 -590 0
-579 -915 591 0
579 915 -591 0
-579 -916 592 0
579 916 -592 0
-579 -917 593 0
579 917 -593 0
-579 -918 594 0
579 918 -594 0
-579 -919 595 0
579 919 -595 0
-579 -920 596 0
579 920 -596 0
-579 -921 597 0
579 921 -597 0
-579 -922 598 0
579 922 -598 0
-579 -923 599 0
579 923 -599 0
-579 -924 600 0
579 924 -600 0
-579 -925 601 0
579 925 -601 0
-579 -926 602 0
579 926 -602 0
-579 -927 603 0
579 927 -603 0
-579 -928 604 0
579 928 -604 0
-579 -929 605 0
579 929 -605 0
-579 -930 606 0
579 930 -606 0
-579 -931 607 0
579 931 -607 0
-579 -932 608 0
579 932 -608 0
-579 -933 609 0
579 933 -609 0
-579 -934 610 0
579 934 -610 0
-579 -935 611 0
579 935 -611 0
-580 -936 581 0
580 936 -581 0
-580 -937 582 0
580 937 -582 0
-580 -938 583 0
580 938 -583 0
-580 -939 584 0
580 939 -584 0
-580 -940 585 0
580 940 -585 0
-580 -941 586 0
580 941 -586 0
-580 -942 587 0
580 942 -587 0
-580 -943 588 0
580 943 -588 0
-580 -944 589 0
580 944 -589 0
-580 -945 590 0
580 945 -590 0
-580 -946 591 0
580 946 -591 0
-580 -947 592 0
580 947 -592 0
-580 -948 593 0
580 948 -593 0
-580 -949 594 0
580 949 -594 0
-580 -950 595 0
580 950 -595 0
-580 -951 596 0
580 951 -596 0
-580 -952 597 0
580 952 -597 0
-580 -953 598 0
580 953 -598 0
-580 -954 599 0
580 954 -599 0
-580 -955 600 0
580 955 -600 0
-580 -956 601 0
580 956 -601 0
-580 -957 602 0
580 957 -602 0
-580 -958 603 0
580 958 -603 0
-580 -959 604 0
580 959 -604 0
-580 -960 605 0
580 960 -605 0
-580 -961 606 0
580 961 -606 0
-580 -962 607 0
580 962 -607 0
-580 -963 608 0
580 963 -608 0
-580 -964 609 0
580 964 -609 0
-580 -965 610 0
580 965 -610 0
-580 -966 611 0
580 966 -611 0
-581 -967 582 0
581 967 -582 0
-581 -968 583 0
581 968 -583 0
-581 -969 584 0
581 969 -584 0
-581 -970 585 0
581 970 -585 0
-581 -971 586 0
581 971 -586 0
-581 -972 587 0
581 972 -587 0
-581 -973 588 0
581 973 -588 0
-581 -974 589 0
581 974 -589 0
-581 -975 590 0
581 975 -590 0
-581 -976 591 0
581 976 -591 0
-581 -977 592 0
581 977 -592 0
-581 -978 593 0
581 978 -593 0
-581 -979 594 0
581 979 -594 0
-581 -980 595 0
581 980 -595 0
-581 -981 596 0
581 981 -596 0
-581 -982 597 0
581 982 -597 0
-581 -983 598 0
581 983 -598 0
-581 -984 599 0
581 984 -599 0
-581 -985 600 0
581 985 -600 0
-581 -986 601 0
581 986 -601 0
-581 -987 602 0
581 987 -602 0
-581 -988 603 0
581 988 -603 0
-581 -989 604 0
581 989 -604 0
-581 -990 605 0
581 990 -605 0
-581 -991 606 0
581 991 -606 0
-581 -992 607 0
581 992 -607 0
-581 -993 608 0
581 993 -608 0
-581 -994 609 0
581 994 -609 0
-581 -995 610 0
581 995 -610 0
-581 -996 611 0
581 996 -611 0
-582 -997 583 0
582 997 -583 0
-582 -998 584 0
582 998 -584 0
-582 -999 585 0
582 999 -585 0
-582 -1000 586 0
582 1000 -586 0
-582 -1001 587 0
582 1001 -587 0
-582 -1002 588 0
582 1002 -588 0
-582 -1003 589 0
582 1003 -589 0
-582 -1004 590 0
582 1004 -590 0
-582 -1005 591 0
582 1005 -591 0
-582 -1006 592 0
582 1006 -592 0
-582 -1007 593 0
582 1007 -593 0
-582 -1008 594 0
582 1008 -594 0
-582 -1009 595 0
582 1009 -595 0
-582 -1010 596 0
582 1010 -596 0
-582 -1011 597 0
582 1011 -597 0
-582 -1012 598 0
582 1012 -598 0
-582 -1013 599 0
582 1013 -599 0
-582 -1014 600 0
582 1014 -600 0
-582 -1015 601 0
582 1015 -601 0
-582 -1016 602 0
582 1016 -602 0
-582 -1017 603 0
582 1017 -603 0
-582 -1018 604 0
582 1018 -604 0
-582 -1019 605 0
582 1019 -605 0
-582 -1020 606 0
582 1020 -606 0
-582 -1021 607 0
582 1021 -607 0
-582 -1022 608 0
582 1022 -608 0
-582 -1023 609 0
582 1023 -609 0
-582 -1024 610 0
582 1024 -610 0
-582 -1025 611 0
582 1025 -611 0
-583 -1026 584 0
583 1026 -584 0
-583 -1027 585 0
583 1027 -585 0
-583 -1028 586 0
583 1028 -586 0
-583 -1029 587 0
583 1029 -587 0
-583 -1030 588 0
583 1030 -588 0
-583 -1031 589 0
583 1031 -589 0
-583 -1032 590 0
583 1032 -590 0
-583 -1033 591 0
583 1033 -591 0
-583 -1034 592 0
583 1034 -592 0
-583 -1035 593 0
583 1035 -593 0
-583 -1036 594 0
583 1036 -594 0
-583 -1037 595 0
583 1037 -595 0
-583 -1038 596 0
583 1038 -596 0
-583 -1039 597 0
583 1039 -597 0
-583 -1040 598 0
583 1040 -598 0
-583 -1041 599 0
583 1041 -599 0
-583 -1042 600 0
583 1042 -600 0
-583 -1043 601 0
583 1043 -601 0
-583 -1044 602 0
583 1044 -602 0
-583 -1045 603 0
583 1045 -603 0
-583 -1046 604 0
583 1046 -604 0
-583 -1047 605 0
583 1047 -605 0
-583 -1048 606 0
583 1048 -606 0
-583 -1049 607 0
583 1049 -607 0
-583 -1050 608 0
583 1050 -608 0
-583 -1051 609 0
583 1051 -609 0
-583 -1052 610 0
583 1052 -610 0
-583 -1053 611 0
583 1053 -611 0
-584 -1054 585 0
584 1054 -585 0
-584 -1055 586 0
584 1055 -586 0
-584 -1056 587 0
584 1056 -587 0
-584 -1057 588 0
584 1057 -588 0
-584 -1058 589 0
584 1058 -589 0
-584 -1059 590 0
584 1059 -590 0
-584 -1060 591 0
584 1060 -591 0
-584 -1061 592 0
584 1061 -592 0
-584 -1062 593 0
584 1062 -593 0
-584 -1063 594 0
584 1063 -594 0
-584 -1064 595 0
584 1064 -595 0
-584 -1065 596 0
584 1065 -596 0
-584 -1066 597 0
584 1066 -597 0
-584 -1067 598 0
584 1067 -598 0
-584 -1068 599 0
584 1068 -599 0
-584 -1069 600 0
584 1069 -600 0
-584 -1070 601 0
584 1070 -601 0
-584 -1071 602 0
584 1071 -602 0
-584 -1072 603 0
584 1072 -603 0
-584 -1073 604 0
584 1073 -604 0
-584 -1074 605 0
584 1074 -605 0
-584 -1075 606 0
584 1075 -606 0
-584 -1076 607 0
584 1076 -607 0
-584 -1077 608 0
584 1077 -608 0
-584 -1078 609 0
584 1078 -609 0
-584 -1079 610 0
584 1079 -610 0
-584 -1080 611 0
584 1080 -611 0
-585 -1081 586 0
585 1081 -586 0
-585 -1082 587 0
585 1082 -587 0
-585 -1083 588 0
585 1083 -588 0
-585 -1084 589 0
585 1084 -589 0
-585 -1085 590 0
585 1085 -590 0
-585 -1086 591 0
585 1086 -591 0
-585 -1087 592 0
585 1087 -592 0
-585 -1088 593 0
585 1088 -593 0
-585 -1089 594 0
585 1089 -594 0
-585 -1090 595 0
585 1090 -595 0
-585 -1091 596 0
585 1091 -596 0
-585 -1092 597 0
585 1092 -597 0
-585 -1093 598 0
585 1093 -598 0
-585 -1094 599 0
585 1094 -599 0
-585 -1095 600 0
585 1095 -600 0
-585 -1096 601 0
585 1096 -601 0
-585 -1097 602 0
585 1097 -602 0
-585 -1098 603 0
585 1098 -603 0
-585 -1099 604 0
585 1099 -604 0
-585 -1100 605 0
585 1100 -605 0
-585 -1101 606 0
585 1101 -606 0
-585 -1102 607 0
585 1102 -607 0
-585 -1103 608 0
585 1103 -608 0
-585 -1104 609 0
585 1104 -609 0
-585 -1105 610 0
585 1105 -610 0
-585 -1106 611 0
585 1106 -611 0
-586 -1107 587 0
586 1107 -587 0
-586 -1108 588 0
586 1108 -588 0
-586 -1109 589 0
586 1109 -589 0
-586 -1110 590 0
586 1110 -590 0
-586 -1111 591 0
586 1111 -591 0
-586 -1112 592 0
586 1112 -592 0
-586 -1113 593 0
586 1113 -593 0
-586 -1114 594 0
586 1114 -594 0
-586 -1115 595 0
586 1115 -595 0
-586 -1116 596 0
586 1116 -596 0
-586 -1117 597 0
586 1117 -597 0
-586 -1118 598 0
586 1118 -598 0
-586 -1119 599 0
586 1119 -599 0
-586 -1120 600 0
586 1120 -600 0
-586 -1121 601 0
586 1121 -601 0
-586 -1122 602 0
586 1122 -602 0
-586 -1123 603 0
586 1123 -603 0
-586 -1124 604 0
586 1124 -604 0
-586 -1125 605 0
586 1125 -605 0
-586 -1126 606 0
586 1126 -606 0
-586 -1127 607 0
586 1127 -607 0
-586 -1128 608 0
586 1128 -608 0
-586 -1129 609 0
586 1129 -609 0
-586 -1130 610 0
586 1130 -610 0
-586 -1131 611 0
586 1131 -611 0
-587 -1132 588 0
587 1132 -588 0
-587 -1133 589 0
587 1133 -589 0
-587 -1134 590 0
587 1134 -590 0
-587 -1135 591 0
587 1135 -591 0
-587 -1136 592 0
587 1136 -592 0
-587 -1137 593 0
587 1137 -593 0
-587 -1138 594 0
587 1138 -594 0
-587 -1139 595 0
587 1139 -595 0
-587 -1140 596 0
587 1140 -596 0
-587 -1141 597 0
587 1141 -597 0
-587 -1142 598 0
587 1142 -598 0
-587 -1143 599 0
587 1143 -599 0
-587 -1144 600 0
587 1144 -600 0
-587 -1145 601 0
587 1145 -601 0
-587 -1146 602 0
587 1146 -602 0
-587 -1147 603 0
587 1147 -603 0
-587 -1148 604 0
587 1148 -604 0
-587 -1149 605 0
587 1149 -605 0
-587 -1150 606 0
587 1150 -606 0
-587 -1151 607 0
587 1151 -607 0
-587 -1152 608 0
587 1152 -608 0
-587 -1153 609 0
587 1153 -609 0
-587 -1154 610 0
587 1154 -610 0
-587 -1155 611 0
587 1155 -611 0
-588 -1156 589 0
588 1156 -589 0
-588 -1157 590 0
588 1157 -590 0
-588 -1158 591 0
588 1158 -591 0
-588 -1159 592 0
588 1159 -592 0
-588 -1160 593 0
588 1160 -593 0
-588 -1161 594 0
588 1161 -594 0
-588 -1162 595 0
588 1162 -595 0
-588 -1163 596 0
588 1163 -596 0
-588 -1164 597 0
588 1164 -597 0
-588 -1165 598 0
588 1165 -598 0
-588 -1166 599 0
588 1166 -599 0
-588 -1167 600 0
588 1167 -600 0
-588 -1168 601 0
588 1168 -601 0
-588 -1169 602 0
588 1169 -602 0
-588 -1170 603 0
588 1170 -603 0
-588 -1171 604 0
588 1171 -604 0
-588 -1172 605 0
588 1172 -605 0
-588 -1173 606 0
588 1173 -606 0
-588 -1174 607 0
588 1174 -607 0
-588 -1175 608 0
588 1175 -608 0
-588 -1176 609 0
588 1176 -609 0
-588 -1177 610 0
588 1177 -610 0
-588 -1178 611 0
588 1178 -611 0
-589 -1179 590 0
589 1179 -590 0
-589 -1180 591 0
589 1180 -591 0
-589 -1181 592 0
589 1181 -592 0
-589 -1182 593 0
589 1182 -593 0
-589 -1183 594 0
589 1183 -594 0
-589 -1184 595 0
589 1184 -595 0
-589 -1185 596 0
589 1185 -596 0
-589 -1186 597 0
589 1186 -597 0
-589 -1187 598 0
589 1187 -598 0
-589 -1188 599 0
589 1188 -599 0
-589 -1189 600 0
589 1189 -600 0
-589 -1190 601 0
589 1190 -601 0
-589 -1191 602 0
589 1191 -602 0
-589 -1192 603 0
589 1192 -603 0
-589 -1193 604 0
589 1193 -604 0
-589 -1194 605 0
589 1194 -605 0
-589 -1195 606 0
589 1195 -606 0
-589 -1196 607 0
589 1196 -607 0
-589 -1197 608 0
589 1197 -608 0
-589 -1198 609 0
589 1198 -609 0
-589 -1199 610 0
589 1199 -610 0
-589 -1200 611 0
589 1200 -611 0
-590 -1201 591 0
590 1201 -591 0
-590 -1202 592 0
590 1202 -592 0
-590 -1203 593 0
590 1203 -593 0
-590 -1204 594 0
590 1204 -594 0
-590 -1205 595 0
590 1205 -595 0
-590 -1206 596 0
590 1206 -596 0
-590 -1207 597 0
590 1207 -597 0
-590 -1208 598 0
590 1208 -598 0
-590 -1209 599 0
590 1209 -599 0
-590 -1210 600 0
590 1210 -600 0
-590 -1211 601 0
590 1211 -601 0
-590 -1212 602 0
590 1212 -602 0
-590 -1213 603 0
590 1213 -603 0
-590 -1214 604 0
590 1214 -604 0
-590 -1215 605 0
590 1215 -605 0
-590 -1216 606 0
590 1216 -606 0
-590 -1217 607 0
590 1217 -607 0
-590 -1218 608 0
590 1218 -608 0
-590 -1219 609 0
590 1219 -609 0
-590 -1220 610 0
590 1220 -610 0
-590 -1221 611 0
590 1221 -611 0
-591 -1222 592 0
591 1222 -592 0
-591 -1223 593 0
591 1223 -593 0
-591 -1224 594 0
591 1224 -594 0
-591 -1225 595 0
591 1225 -595 0
-591 -1226 596 0
591 1226 -596 0
-591 -1227 597 0
591 1227 -597 0
-591 -1228 598 0
591 1228 -598 0
-591 -1229 599 0
591 1229 -599 0
-591 -1230 600 0
591 1230 -600 0
-591 -1231 601 0
591 1231 -601 0
-591 -1232 602 0
591 1232 -602 0
-591 -1233 603 0
591 1233 -603 0
-591 -1234 604 0
591 1234 -604 0
-591 -1235 605 0
591 1235 -605 0
-591 -1236 606 0
591 1236 -606 0
-591 -1237 607 0
591 1237 -607 0
-591 -1238 608 0
591 1238 -608 0
-591 -1239 609 0
591 1239 -609 0
-591 -1240 610 0
591 1240 -610 0
-591 -1241 611 0
591 1241 -611 0
-592 -1242 593 0
592 1242 -593 0
-592 -1243 594 0
592 1243 -594 0
-592 -1244 595 0
592 1244 -595 0
-592 -1245 596 0
592 1245 -596 0
-592 -1246 597 0
592 1246 -597 0
-592 -1247 598 0
592 1247 -598 0
-592 -1248 599 0
592 1248 -599 0
-592 -1249 600 0
592 1249 -600 0
-592 -1250 601 0
592 1250 -601 0
-592 -1251 602 0
592 1251 -602 0
-592 -1252 603 0
592 1252 -603 0
-592 -1253 604 0
592 1253 -604 0
-592 -1254 605 0
592 1254 -605 0
-592 -1255 606 0
592 1255 -606 0
-592 -1256 607 0
592 1256 -607 0
-592 -1257 608 0
592 1257 -608 0
-592 -1258 609 0
592 1258 -609 0
-592 -1259 610 0
592 1259 -610 0
-592 -1260 611 0
592 1260 -611 0
-593 -1261 594 0
593 1261 -594 0
-593 -1262 595 0
593 1262 -595 0
-593 -1263 596 0
593 1263 -596 0
-593 -1264 597 0
593 1264 -597 0
-593 -1265 598 0
593 1265 -598 0
-593 -1266 599 0
593 1266 -599 0
-593 -1267 600 0
593 1267 -600 0
-593 -1268 601 0
593 1268 -601 0
-593 -1269 602 0
593 1269 -602 0
-593 -1270 603 0
593 1270 -603 0
-593 -1271 604 0
593 1271 -604 0
-593 -1272 605 0
593 1272 -605 0
-593 -1273 606 0
593 1273 -606 0
-593 -1274 607 0
593 1274 -607 0
-593 -1275 608 0
593 1275 -608 0
-593 -1276 609 0
593 1276 -609 0
-593 -1277 610 0
593 1277 -610 0
-593 -1278 611 0
593 1278 -611 0
-594 -1279 595 0
594 1279 -595 0
-594 -1280 596 0
594 1280 -596 0
-594 -1281 597 0
594 1281 -597 0
-594 -1282 598 0
594 1282 -598 0
-594 -1283 599 0
594 1283 -599 0
-594 -1284 600 0
594 1284 -600 0
-594 -1285 601 0
594 1285 -601 0
-594 -1286 602 0
594 1286 -602 0
-594 -1287 603 0
594 1287 -603 0
-594 -1288 604 0
594 1288 -604 0
-594 -1289 605 0
594 1289 -605 0
-594 -1290 606 0
594 1290 -606 0
-594 -1291 607 0
594 1291 -607 0
-594 -1292 608 0
594 1292 -608 0
-594 -1293 609 0
594 1293 -609 0
-594 -1294 610 0
594 1294 -610 0
-594 -1295 611 0
594 1295 -611 0
-595 -1296 596 0
595 1296 -596 0
-595 -1297 597 0
595 1297 -597 0
-595 -1298 598 0
595 1298 -598 0
-595 -1299 599 0
595 1299 -599 0
-595 -1300 600 0
595 1300 -600 0
-595 -1301 601 0
595 1301 -601 0
-595 -1302 602 0
595 1302 -602 0
-595 -1303 603 0
595 1303 -603 0
-595 -1304 604 0
595 1304 -604 0
-595 -1305 605 0
595 1305 -605 0
-595 -1306 606 0
595 1306 -606 0
-595 -1307 607 0
595 1307 -607 0
-595 -1308 608 0
595 1308 -608 0
-595 -1309 609 0
595 1309 -609 0
-595 -1310 610 0
595 1310 -610 0
-595 -1311 611 0
595 1311 -611 0
-596 -1312 597 0
596 1312 -597 0
-596 -1313 598 0
596 1313 -598 0
-596 -1314 599 0
596 1314 -599 0
-596 -1315 600 0
596 1315 -600 0
-596 -1316 601 0
596 1316 -601 0
-596 -1317 602 0
596 1317 -602 0
-596 -1318 603 0
596 1318 -603 0
-596 -1319 604 0
596 1319 -604 0
-596 -1320 605 0
596 1320 -605 0
-596 -1321 606 0
596 1321 -606 0
-596 -1322 607 0
596 1322 -607 0
-596 -1323 608 0
596 1323 -608 0
-596 -1324 609 0
596 1324 -609 0
-596 -1325 610 0
596 1325 -610 0
-596 -1326 611 0
596 1326 -611 0
-597 -1327 598 0
597 1327 -598 0
-597 -1328 599 0
597 1328 -599 0
-597 -1329 600 0
597 1329 -600 0
-597 -1330 601 0
597 1330 -601 0
-597 -1331 602 0
597 1331 -602 0
-597 -1332 603 0
597 1332 -603 0
-597 -1333 604 0
597 1333 -604 0
-597 -1334 605 0
597 1334 -605 0
-597 -1335 606 0
597 1335 -606 0
-597 -1336 607 0
597 1336 -607 0
-597 -1337 608 0
597 1337 -608 0
-597 -1338 609 0
597 1338 -609 0
-597 -1339 610 0
597 1339 -610 0
-597 -1340 611 0
597 1340 -611 0
-598 -1341 599 0
598 1341 -599 0
-598 -1342 600 0
598 1342 -600 0
-598 -1343 601 0
598 1343 -601 0
-598 -1344 602 0
598 1344 -602 0
-598 -1345 603 0
598 1345 -603 0
-598 -1346 604 0
598 1346 -604 0
-598 -1347 605 0
598 1347 -605 0
-598 -1348 606 0
598 1348 -606 0
-598 -1349 607 0
598 1349 -607 0
-598 -1350 608 0
598 1350 -608 0
-598 -1351 609 0
598 1351 -609 0
-598 -1352 610 0
598 1352 -610 0
-598 -1353 611 0
598 1353 -611 0
-599 -1354 600 0
599 1354 -600 0
-599 -1355 601 0
599 1355 -601 0
-599 -1356 602 0
599 1356 -602 0
-599 -1357 603 0
599 1357 -603 0
-599 -1358 604 0
599 1358 -604 0
-599 -1359 605 0
599 1359 -605 0
-599 -1360 606 0
599 1360 -606 0
-599 -1361 607 0
599 1361 -607 0
-599 -1362 608 0
599 1362 -608 0
-599 -1363 609 0
599 1363 -609 0
-599 -1364 610 0
599 1364 -610 0
-599 -1365 611 0
599 1365 -611 0
-600 -1366 601 0
600 1366 -601 0
-600 -1367 602 0
600 1367 -602 0
-600 -1368 603 0
600 1368 -603 0
-600 -1369 604 0
600 1369 -604 0
-600 -1370 605 0
600 1370 -605 0
-600 -1371 606 0
600 1371 -606 0
-600 -1372 607 0
600 1372 -607 0
-600 -1373 608 0
600 1373 -608 0
-600 -1374 609 0
600 1374 -609 0
-600 -1375 610 0
600 1375 -610 0
-600 -1376 611 0
600 1376 -611 0
-601 -1377 602 0
601 1377 -602 0
-601 -1378 603 0
601 1378 -603 0
-601 -1379 604 0
601 1379 -604 0
-601 -1380 605 0
601 1380 -605 0
-601 -1381 606 0
601 1381 -606 0
-601 -1382 607 0
601 1382 -607 0
-601 -1383 608 0
601 1383 -608 0
-601 -1384 609 0
601 1384 -609 0
-601 -1385 610 0
601 1385 -610 0
-601 -1386 611 0
601 1386 -611 0
-602 -1387 603 0
602 1387 -603 0
-602 -1388 604 0
602 1388 -604 0
-602 -1389 605 0
602 1389 -605 0
-602 -1390 606 0
602 1390 -606 0
-602 -1391 607 0
602 1391 -607 0
-602 -1392 608 0
602 1392 -608 0
-602 -1393 609 0
602 1393 -609 0
-602 -1394 610 0
602 1394 -610 0
-602 -1395 611 0
602 1395 -611 0
-603 -1396 604 0
603 1396 -604 0
-603 -1397 605 0
603 1397 -605 0
-603 -1398 606 0
603 1398 -606 0
-603 -1399 607 0
603 1399 -607 0
-603 -1400 608 0
603 1400 -608 0
-603 -1401 609 0
603 1401 -609 0
-603 -1402 610 0
603 1402 -610 0
-603 -1403 611 0
603 1403 -611 0
-604 -1404 605 0
604 1404 -605 0
-604 -1405 606 0
604 1405 -606 0
-604 -1406 607 0
604 1406 -607 0
-604 -1407 608 0
604 1407 -608 0
-604 -1408 609 0
604 1408 -609 0
-604 -1409 610 0
604 1409 -610 0
-604 -1410 611 0
604 1410 -611 0
-605 -1411 606 0
605 1411 -606 0
-605 -1412 607 0
605 1412 -607 0
-605 -1413 608 0
605 1413 -608 0
-605 -1414 609 0
605 1414 -609 0
-605 -1415 610 0
605 1415 -610 0
-605 -1416 611 0
605 1416 -611 0
-606 -1417 607 0
606 1417 -607 0
-606 -1418 608 0
606 1418 -608 0
-606 -1419 609 0
606 1419 -609 0
-606 -1420 610 0
606 1420 -610 0
-606 -1421 611 0
606 1421 -611 0
-607 -1422 608 0
607 1422 -608 0
-607 -1423 609 0
607 1423 -609 0
-607 -1424 610 0
607 1424 -610 0
-607 -1425 611 0
607 1425 -611 0
-608 -1426 609 0
608 1426 -609 0
-608 -1427 610 0
608 1427 -610 0
-608 -1428 611 0
608 1428 -611 0
-609 -1429 610 0
609 1429 -610 0
-609 -1430 611 0
609 1430 -611 0
-610 -1431 611 0
610 1431 -611 0
-612 -652 613 0
612 652 -613 0
-612 -653 614 0
612 653 -614 0
-612 -654 615 0
612 654 -615 0
-612 -655 616 0
612 655 -616 0
-612 -656 617 0
612 656 -617 0
-612 -657 618 0
612 657 -618 0
-612 -658 619 0
612 658 -619 0
-612 -659 620 0
612 659 -620 0
-612 -660 621 0
612 660 -621 0
-612 -661 622 0
612 661 -622 0
-612 -662 623 0
612 662 -623 0
-612 -663 624 0
612 663 -624 0
-612 -664 625 0
612 664 -625 0
-612 -665 626 0
612 665 -626 0
-612 -666 627 0
612 666 -627 0
-612 -667 628 0
612 667 -628 0
-612 -668 629 0
612 668 -629 0
-612 -669 630 0
612 669 -630 0
-612 -670 631 0
612 670 -631 0
-612 -671 632 0
612 671 -632 0
-612 -672 633 0
612 672 -633 0
-612 -673 634 0
612 673 -634 0
-612 -674 635 0
612 674 -635 0
-612 -675 636 0
612 675 -636 0
-612 -676 637 0
612 676 -637 0
-612 -677 638 0
612 677 -638 0
-612 -678 639 0
612 678 -639 0
-612 -679 640 0
612 679 -640 0
-612 -680 641 0
612 680 -641 0
-612 -681 642 0
612 681 -642 0
-612 -682 643 0
612 682 -643 0
-612 -683 644 0
612 683 -644 0
-612 -684 645 0
612 684 -645 0
-612 -685 646 0
612 685 -646 0
-612 -686 647 0
612 686 -647 0
-612 -687 648 0
612 687 -648 0
-612 -688 649 0
612 688 -649 0
-612 -689 650 0
612 689 -650 0
-612 -690 651 0
612 690 -651 0
-613 -691 614 0
613 691 -614 0
-613 -692 615 0
613 692 -615 0
-613 -693 616 0
613 693 -616 0
-613 -694 617 0
613 694 -617 0
-613 -695 618 0
613 695 -618 0
-613 -696 619 0
613 696 -619 0
-613 -697 620 0
613 697 -620 0
-613 -698 621 0
613 698 -621 0
-613 -699 622 0
613 699 -622 0
-613 -700 623 0
613 700 -623 0
-613 -701 624 0
613 701 -624 0
-613 -702 625 0
613 702 -625 0
-613 -703 626 0
613 703 -626 0
-613 -704 627 0
613 704 -627 0
-613 -705 628 0
613 705 -628 0
-613 -706 629 0
613 706 -629 0
-613 -707 630 0
613 707 -630 0
-613 -708 631 0
613 708 -631 0
-613 -709 632 0
613 709 -632 0
-613 -710 633 0
613 710 -633 0
-613 -711 634 0
613 711 -634 0
-613 -712 635 0
613 712 -635 0
-613 -713 636 0
613 713 -636 0
-613 -714 637 0
613 714 -637 0
-613 -715 638 0
613 715 -638 0
-613 -716 639 0
613 716 -639 0
-613 -717 640 0
613 717 -640 0
-613 -718 641 0
613 718 -641 0
-613 -719 642 0
613 719 -642 0
-613 -720 643 0
613 720 -643 0
-613 -721 644 0
613 721 -644 0
-613 -722 645 0
613 722 -645 0
-613 -723 646 0
613 723 -646 0
-613 -724 647 0
613 724 -647 0
-613 -725 648 0
613 725 -648 0
-613 -726 649 0
613 726 -649 0
-613 -727 650 0
613 727 -650 0
-613 -728 651 0
613 728 -651 0
-614 -729 615 0
614 729 -615 0
-614 -730 616 0
614 730 -616 0
-614 -731 617 0
614 731 -617 0
-614 -732 618 0
614 732 -618 0
-614 -733 619 0
614 733 -619 0
-614 -734 620 0
614 734 -620 0
-614 -735 621 0
614 735 -621 0
-614 -736 622 0
614 736 -622 0
-614 -737 623 0
614 737 -623 0
-614 -738 624 0
614 738 -624 0
-614 -739 625 0
614 739 -625 0
-614 -740 626 0
614 740 -626 0
-614 -741 627 0
614 741 -627 0
-614 -742 628 0
614 742 -628 0
-614 -743 629 0
614 743 -629 0
-614 -744 630 0
614 744 -630 0
-614 -745 631 0
614 745 -631 0
-614 -746 632 0
614 746 -632 0
-614 -747 633 0
614 747 -633 0
-614 -748 634 0
614 748 -634 0
-614 -749 635 0
614 749 -635 0
-614 -750 636 0
614 750 -636 0
-614 -751 637 0
614 751 -637 0
-614 -752 638 0
614 752 -638 0
-614 -753 639 0
614 753 -639 0
-614 -754 640 0
614 754 -640 0
-614 -755 641 0
614 755 -641 0
-614 -756 642 0
614 756 -642 0
-614 -757 643 0
614 757 -643 0
-614 -758 644 0
614 758 -644 0
-614 -759 645 0
614 759 -645 0
-614 -760 646 0
614 760 -646 0
-614 -761 647 0
614 761 -647 0
-614 -762 648 0
614 762 -648 0
-614 -763 649 0
614 763 -649 0
-614 -764 650 0
614 764 -650 0
-614 -765 651 0
614 765 -651 0
-615 -766 616 0
615 766 -616 0
-615 -767 617 0
615 767 -617 0
-615 -768 618 0
615 768 -618 0
-615 -769 619 0
615 769 -619 0
-615 -770 620 0
615 770 -620 0
-615 -771 621 0
615 771 -621 0
-615 -772 622 0
615 772 -622 0
-615 -773 623 0
615 773 -623 0
-615 -774 624 0
615 774 -624 0
-615 -775 625 0
615 775 -625 0
-615 -776 626 0
615 776 -626 0
-615 -777 627 0
615 777 -627 0
-615 -778 628 0
615 778 -628 0
-615 -779 629 0
615 779 -629 0
-615 -780 630 0
615 780 -630 0
-615 -781 631 0
615 781 -631 0
-615 -782 632 0
615 782 -632 0
-615 -783 633 0
615 783 -633 0
-615 -784 634 0
615 784 -634 0
-615 -785 635 0
615 785 -635 0
-615 -786 636 0
615 786 -636 0
-615 -787 637 0
615 787 -637 0
-615 -788 638 0
615 788 -638 0
-615 -789 639 0
615 789 -639 0
-615 -790 640 0
615 790 -640 0
-615 -791 641 0
615 791 -641 0
-615 -792 642 0
615 792 -642 0
-615 -793 643 0
615 793 -643 0
-615 -794 644 0
615 794 -644 0
-615 -795 645 0
615 795 -645 0
-615 -796 646 0
615 796 -646 0
-615 -797 647 0
615 797 -647 0
-615 -798 648 0
615 798 -648 0
-615 -799 649 0
615 799 -649 0
-615 -800 650 0
615 800 -650 0
-615 -801 651 0
615 801 -651 0
-616 -802 617 0
616 802 -617 0
-616 -803 618 0
616 803 -618 0
-616 -804 619 0
616 804 -619 0
-616 -805 620 0
616 805 -620 0
-616 -806 621 0
616 806 -621 0
-616 -807 622 0
616 807 -622 0
-616 -808 623 0
616 808 -623 0
-616 -809 624 0
616 809 -624 0
-616 -810 625 0
616 810 -625 0
-616 -811 626 0
616 811 -626 0
-616 -812 627 0
616 812 -627 0
-616 -813 628 0
616 813 -628 0
-616 -814 629 0
616 814 -629 0
-616 -815 630 0
616 815 -630 0
-616 -816 631 0
616 816 -631 0
-616 -817 632 0
616 817 -632 0
-616 -818 633 0
616 818 -633 0
-616 -819 634 0
616 819 -634 0
-616 -820 635 0
616 820 -635 0
-616 -821 636 0
616 821 -636 0
-616 -822 637 0
616 822 -637 0
-616 -823 638 0
616 823 -638 0
-616 -824 639 0
616 824 -639 0
-616 -825 640 0
616 825 -640 0
-616 -826 641 0
616 826 -641 0
-616 -827 642 0
616 827 -642 0
-616 -828 643 0
616 828 -643 0
-616 -829 644 0
616 829 -644 0
-616 -830 645 0
616 830 -645 0
-616 -831 646 0
616 831 -646 0
-616 -832 647 0
616 832 -647 0
-616 -833 648 0
616 833 -648 0
-616 -834 649 0
616 834 -649 0
-616 -835 650 0
616 835 -650 0
-616 -836 651 0
616 836 -651 0
-617 -837 618 0
617 837 -618 0
-617 -838 619 0
617 838 -619 0
-617 -839 620 0
617 839 -620 0
-617 -840 621 0
617 840 -621 0
-617 -841 622 0
617 841 -622 0
-617 -842 623 0
617 842 -623 0
-617 -843 624 0
617 843 -624 0
-617 -844 625 0
617 844 -625 0
-617 -845 626 0
617 845 -626 0
-617 -846 627 0
617 846 -627 0
-617 -847 628 0
617 847 -628 0
-617 -848 629 0
617 848 -629 0
-617 -849 630 0
617 849 -630 0
-617 -850 631 0
617 850 -631 0
-617 -851 632 0
617 851 -632 0
-617 -852 633 0
617 852 -633 0
-617 -853 634 0
617 853 -634 0
-617 -854 635 0
617 854 -635 0
-617 -855 636 0
617 855 -636 0
-617 -856 637 0
617 856 -637 0
-617 -857 638 0
617 857 -638 0
-617 -858 639 0
617 858 -639 0
-617 -859 640 0
617 859 -640 0
-617 -860 641 0
617 860 -641 0
-617 -861 642 0
617 861 -642 0
-617 -862 643 0
617 862 -643 0
-617 -863 644 0
617 863 -644 0
-617 -864 645 0
617 864 -645 0
-617 -865 646 0
617 865 -646 0
-617 -866 647 0
617 866 -647 0
-617 -867 648 0
617 867 -648 0
-617 -868 649 0
617 868 -649 0
-617 -869 650 0
617 869 -650 0
-617 -870 651 0
617 870 -651 0
-618 -871 619 0
618 871 -619 0
-618 -872 620 0
618 872 -620 0
-618 -873 621 0
618 873 -621 0
-618 -874 622 0
618 874 -622 0
-618 -875 623 0
618 875 -623 0
-618 -876 624 0
618 876 -624 0
-618 -877 625 0
618 877 -625 0
-618 -878 626 0
618 878 -626 0
-618 -879 627 0
618 879 -627 0
-618 -880 628 0
618 880 -628 0
-618 -881 629 0
618 881 -629 0
-618 -882 630 0
618 882 -630 0
-618 -883 631 0
618 883 -631 0
-618 -884 632 0
618 884 -632 0
-618 -885 633 0
618 885 -633 0
-618 -886 634 0
618 886 -634 0
-618 -887 635 0
618 887 -635 0
-618 -888 636 0
618 888 -636 0
-618 -889 637 0
618 889 -637 0
-618 -890 638 0
618 890 -638 0
-618 -891 639 0
618 891 -639 0
-618 -892 640 0
618 892 -640 0
-618 -893 641 0
618 893 -641 0
-618 -894 642 0
618 894 -642 0
-618 -895 643 0
618 895 -643 0
-618 -896 644 0
618 896 -644 0
-618 -897 645 0
618 897 -645 0
-618 -898 646 0
618 898 -646 0
-618 -899 647 0
618 899 -647 0
-618 -900 648 0
618 900 -648 0
-618 -901 649 0
618 901 -649 0
-618 -902 650 0
618 902 -650 0
-618 -903 651 0
618 903 -651 0
-619 -904 620 0
619 904 -620 0
-619 -905 621 0
619 905 -621 0
-619 -906 622 0
619 906 -622 0
-619 -907 623 0
619 907 -623 0
-619 -908 624 0
619 908 -624 0
-619 -909 625 0
619 909 -625 0
-619 -910 626 0
619 910 -626 0
-619 -911 627 0
619 911 -627 0
-619 -912 628 0
619 912 -628 0
-619 -913 629 0
619 913 -629 0
-619 -914 630 0
619 914 -630 0
-619 -915 631 0
619 915 -631 0
-619 -916 632 0
619 916 -632 0
-619 -917 633 0
619 917 -633 0
-619 -918 634 0
619 918 -634 0
-619 -919 635 0
619 919 -635 0
-619 -920 636 0
619 920 -636 0
-619 -921 637 0
619 921 -637 0
-619 -922 638 0
619 922 -638 0
-619 -923 639 0
619 923 -639 0
-619 -924 640 0
619 924 -640 0
-619 -925 641 0
619 925 -641 0
-619 -926 642 0
619 926 -642 0
-619 -927 643 0
619 927 -643 0
-619 -928 644 0
619 928 -644 0
-619 -929 645 0
619 929 -645 0
-619 -930 646 0
619 930 -646 0
-619 -931 647 0
619 931 -647 0
-619 -932 648 0
619 932 -648 0
-619 -933 649 0
619 933 -649 0
-619 -934 650 0
619 934 -650 0
-619 -935 651 0
619 935 -651 0
-620 -936 621 0
620 936 -621 0
-620 -937 622 0
620 937 -622 0
-620 -938 623 0
620 938 -623 0
-620 -939 624 0
620 939 -624 0
-620 -940 625 0
620 940 -625 0
-620 -941 626 0
620 941 -626 0
-620 -942 627 0
620 942 -627 0
-620 -943 628 0
620 943 -628 0
-620 -944 629 0
620 944 -629 0
-620 -945 630 0
620 945 -630 0
-620 -946 631 0
620 946 -631 0
-620 -947 632 0
620 947 -632 0
-620 -948 633 0
620 948 -633 0
-620 -949 634 0
620 949 -634 0
-620 -950 635 0
620 950 -635 0
-620 -951 636 0
620 951 -636 0
-620 -952 637 0
620 952 -637 0
-620 -953 638 0
620 953 -638 0
-620 -954 639 0
620 954 -639 0
-620 -955 640 0
620 955 -640 0
-620 -956 641 0
620 956 -641 0
-620 -957 642 0
620 957 -642 0
-620 -958 643 0
620 958 -643 0
-620 -959 644 0
620 959 -644 0
-620 -960 645 0
620 960 -645 0
-620 -961 646 0
620 961 -646 0
-620 -962 647 0
620 962 -647 0
-620 -963 648 0
620 963 -648 0
-620 -964 649 0
620 964 -649 0
-620 -965 650 0
620 965 -650 0
-620 -966 651 0
620 966 -651 0
-621 -967 622 0
621 967 -622 0
-621 -968 623 0
621 968 -623 0
-621 -969 624 0
621 969 -624 0
-621 -970 625 0
621 970 -625 0
-621 -971 626 0
621 971 -626 0
-621 -972 627 0
621 972 -627 0
-621 -973 628 0
621 973 -628 0
-621 -974 629 0
621 974 -629 0
-621 -975 630 0
621 975 -630 0
-621 -976 631 0
621 976 -631 0
-621 -977 632 0
621 977 -632 0
-621 -978 633 0
621 978 -633 0
-621 -979 634 0
621 979 -634 0
-621 -980 635 0
621 980 -635 0
-621 -981 636 0
621 981 -636 0
-621 -982 637 0
621 982 -637 0
-621 -983 638 0
621 983 -638 0
-621 -984 639 0
621 984 -639 0
-621 -985 640 0
621 985 -640 0
-621 -986 641 0
621 986 -641 0
-621 -987 642 0
621 987 -642 0
-621 -988 643 0
621 988 -643 0
-621 -989 644 0
621 989 -644 0
-621 -990 645 0
621 990 -645 0
-621 -991 646 0
621 991 -646 0
-621 -992 647 0
621 992 -647 0
-621 -993 648 0
621 993 -648 0
-621 -994 649 0
621 994 -649 0
-621 -995 650 0
621 995 -650 0
-621 -996 651 0
621 996 -651 0
-622 -997 623 0
622 997 -623 0
-622 -998 624 0
622 998 -624 0
-622 -999 625 0
622 999 -625 0
-622 -1000 626 0
622 1000 -626 0
-622 -1001 627 0
622 1001 -627 0
-622 -1002 628 0
622 1002 -628 0
-622 -1003 629 0
622 1003 -629 0
-622 -1004 630 0
622 1004 -630 0
-622 -1005 631 0
622 1005 -631 0
-622 -1006 632 0
622 1006 -632 0
-622 -1007 633 0
622 1007 -633 0
-622 -1008 634 0
622 1008 -634 0
-622 -1009 635 0
622 1009 -635 0
-622 -1010 636 0
622 1010 -636 0
-622 -1011 637 0
622 1011 -637 0
-622 -1012 638 0
622 1012 -638 0
-622 -1013 639 0
622 1013 -639 0
-622 -1014 640 0
622 1014 -640 0
-622 -1015 641 0
622 1015 -641 0
-622 -1016 642 0
622 1016 -642 0
-622 -1017 643 0
622 1017 -643 0
-622 -1018 644 0
622 1018 -644 0
-622 -1019 645 0
622 1019 -645 0
-622 -1020 646 0
622 1020 -646 0
-622 -1021 647 0
622 1021 -647 0
-622 -1022 648 0
622 1022 -648 0
-622 -1023 649 0
622 1023 -649 0
-622 -1024 650 0
622 1024 -650 0
-622 -1025 651 0
622 1025 -651 0
-623 -1026 624 0
623 1026 -624 0
-623 -1027 625 0
623 1027 -625 0
-623 -1028 626 0
623 1028 -626 0
-623 -1029 627 0
623 1029 -627 0
-623 -1030 628 0
623 1030 -628 0
-623 -1031 629 0
623 1031 -629 0
-623 -1032 630 0
623 1032 -630 0
-623 -1033 631 0
623 1033 -631 0
-623 -1034 632 0
623 1034 -632 0
-623 -1035 633 0
623 1035 -633 0
-623 -1036 634 0
623 1036 -634 0
-623 -1037 635 0
623 1037 -635 0
-623 -1038 636 0
623 1038 -636 0
-623 -1039 637 0
623 1039 -637 0
-623 -1040 638 0
623 1040 -638 0
-623 -1041 639 0
623 1041 -639 0
-623 -1042 640 0
623 1042 -640 0
-623 -1043 641 0
623 1043 -641 0
-623 -1044 642 0
623 1044 -642 0
-623 -1045 643 0
623 1045 -643 0
-623 -1046 644 0
623 1046 -644 0
-623 -1047 645 0
623 1047 -645 0
-623 -1048 646 0
623 1048 -646 0
-623 -1049 647 0
623 1049 -647 0
-623 -1050 648 0
623 1050 -648 0
-623 -1051 649 0
623 1051 -649 0
-623 -1052 650 0
623 1052 -650 0
-623 -1053 651 0
623 1053 -651 0
-624 -1054 625 0
624 1054 -625 0
-624 -1055 626 0
624 1055 -626 0
-624 -1056 627 0
624 1056 -627 0
-624 -1057 628 0
624 1057 -628 0
-624 -1058 629 0
624 1058 -629 0
-624 -1059 630 0
624 1059 -630 0
-624 -1060 631 0
624 1060 -631 0
-624 -1061 632 0
624 1061 -632 0
-624 -1062 633 0
624 1062 -633 0
-624 -1063 634 0
624 1063 -634 0
-624 -1064 635 0
624 1064 -635 0
-624 -1065 636 0
624 1065 -636 0
-624 -1066 637 0
624 1066 -637 0
-624 -1067 638 0
624 1067 -638 0
-624 -1068 639 0
624 1068 -639 0
-624 -1069 640 0
624 1069 -640 0
-624 -1070 641 0
624 1070 -641 0
-624 -1071 642 0
624 1071 -642 0
-624 -1072 643 0
624 1072 -643 0
-624 -1073 644 0
624 1073 -644 0
-624 -1074 645 0
624 1074 -645 0
-624 -1075 646 0
624 1075 -646 0
-624 -1076 647 0
624 1076 -647 0
-624 -1077 648 0
624 1077 -648 0
-624 -1078 649 0
624 1078 -649 0
-624 -1079 650 0
624 1079 -650 0
-624 -1080 651 0
624 1080 -651 0
-625 -1081 626 0
625 1081 -626 0
-625 -1082 627 0
625 1082 -627 0
-625 -1083 628 0
625 1083 -628 0
-625 -1084 629 0
625 1084 -629 0
-625 -1085 630 0
625 1085 -630 0
-625 -1086 631 0
625 1086 -631 0
-625 -1087 632 0
625 1087 -632 0
-625 -1088 633 0
625 1088 -633 0
-625 -1089 634 0
625 1089 -634 0
-625 -1090 635 0
625 1090 -635 0
-625 -1091 636 0
625 1091 -636 0
-625 -1092 637 0
625 1092 -637 0
-625 -1093 638 0
625 1093 -638 0
-625 -1094 639 0
625 1094 -639 0
-625 -1095 640 0
625 1095 -640 0
-625 -1096 641 0
625 1096 -641 0
-625 -1097 642 0
625 1097 -642 0
-625 -1098 643 0
625 1098 -643 0
-625 -1099 644 0
625 1099 -644 0
-625 -1100 645 0
625 1100 -645 0
-625 -1101 646 0
625 1101 -646 0
-625 -1102 647 0
625 1102 -647 0
-625 -1103 648 0
625 1103 -648 0
-625 -1104 649 0
625 1104 -649 0
-625 -1105 650 0
625 1105 -650 0
-625 -1106 651 0
625 1106 -651 0
-626 -1107 627 0
626 1107 -627 0
-626 -1108 628 0
626 1108 -628 0
-626 -1109 629 0
626 1109 -629 0
-626 -1110 630 0
626 1110 -630 0
-626 -1111 631 0
626 1111 -631 0
-626 -1112 632 0
626 1112 -632 0
-626 -1113 633 0
626 1113 -633 0
-626 -1114 634 0
626 1114 -634 0
-626 -1115 635 0
626 1115 -635 0
-626 -1116 636 0
626 1116 -636 0
-626 -1117 637 0
626 1117 -637 0
-626 -1118 638 0
626 1118 -638 0
-626 -1119 639 0
626 1119 -639 0
-626 -1120 640 0
626 1120 -640 0
-626 -1121 641 0
626 1121 -641 0
-626 -1122 642 0
626 1122 -642 0
-626 -1123 643 0
626 1123 -643 0
-626 -1124 644 0
626 1124 -644 0
-626 -1125 645 0
626 1125 -645 0
-626 -1126 646 0
626 1126 -646 0
-626 -1127 647 0
626 1127 -647 0
-626 -1128 648 0
626 1128 -648 0
-626 -1129 649 0
626 1129 -649 0
-626 -1130 650 0
626 1130 -650 0
-626 -1131 651 0
626 1131 -651 0
-627 -1132 628 0
627 1132 -628 0
-627 -1133 629 0
627 1133 -629 0
-627 -1134 630 0
627 1134 -630 0
-627 -1135 631 0
627 1135 -631 0
-627 -1136 632 0
627 1136 -632 0
-627 -1137 633 0
627 1137 -633 0
-627 -1138 634 0
627 1138 -634 0
-627 -1139 635 0
627 1139 -635 0
-627 -1140 636 0
627 1140 -636 0
-627 -1141 637 0
627 1141 -637 0
-627 -1142 638 0
627 1142 -638 0
-627 -1143 639 0
627 1143 -639 0
-627 -1144 640 0
627 1144 -640 0
-627 -1145 641 0
627 1145 -641 0
-627 -1146 642 0
627 1146 -642 0
-627 -1147 643 0
627 1147 -643 0
-627 -1148 644 0
627 1148 -644 0
-627 -1149 645 0
627 1149 -645 0
-627 -1150 646 0
627 1150 -646 0
-627 -1151 647 0
627 1151 -647 0
-627 -1152 648 0
627 1152 -648 0
-627 -1153 649 0
627 1153 -649 0
-627 -1154 650 0
627 1154 -650 0
-627 -1155 651 0
627 1155 -651 0
-628 -1156 629 0
628 1156 -629 0
-628 -1157 630 0
628 1157 -630 0
-628 -1158 631 0
628 1158 -631 0
-628 -1159 632 0
628 1159 -632 0
-628 -1160 633 0
628 1160 -633 0
-628 -1161 634 0
628 1161 -634 0
-628 -1162 635 0
628 1162 -635 0
-628 -1163 636 0
628 1163 -636 0
-628 -1164 637 0
628 1164 -637 0
-628 -1165 638 0
628 1165 -638 0
-628 -1166 639 0
628 1166 -639 0
-628 -1167 640 0
628 1167 -640 0
-628 -1168 641 0
628 1168 -641 0
-628 -1169 642 0
628 1169 -642 0
-628 -1170 643 0
628 1170 -643 0
-628 -1171 644 0
628 1171 -644 0
-628 -1172 645 0
628 1172 -645 0
-628 -1173 646 0
628 1173 -646 0
-628 -1174 647 0
628 1174 -647 0
-628 -1175 648 0
628 1175 -648 0
-628 -1176 649 0
628 1176 -649 0
-628 -1177 650 0
628 1177 -650 0
-628 -1178 651 0
628 1178 -651 0
-629 -1179 630 0
629 1179 -630 0
-629 -1180 631 0
629 1180 -631 0
-629 -1181 632 0
629 1181 -632 0
-629 -1182 633 0
629 1182 -633 0
-629 -1183 634 0
629 1183 -634 0
-629 -1184 635 0
629 1184 -635 0
-629 -1185 636 0
629 1185 -636 0
-629 -1186 637 0
629 1186 -637 0
-629 -1187 638 0
629 1187 -638 0
-629 -1188 639 0
629 1188 -639 0
-629 -1189 640 0
629 1189 -640 0
-629 -1190 641 0
629 1190 -641 0
-629 -1191 642 0
629 1191 -642 0
-629 -1192 643 0
629 1192 -643 0
-629 -1193 644 0
629 1193 -644 0
-629 -1194 645 0
629 1194 -645 0
-629 -1195 646 0
629 1195 -646 0
-629 -1196 647 0
629 1196 -647 0
-629 -1197 648 0
629 1197 -648 0
-629 -1198 649 0
629 1198 -649 0
-629 -1199 650 0
629 1199 -650 0
-629 -1200 651 0
629 1200 -651 0
-630 -1201 631 0
630 1201 -631 0
-630 -1202 632 0
630 1202 -632 0
-630 -1203 633 0
630 1203 -633 0
-630 -1204 634 0
630 1204 -634 0
-630 -1205 635 0
630 1205 -635 0
-630 -1206 636 0
630 1206 -636 0
-630 -1207 637 0
630 1207 -637 0
-630 -1208 638 0
630 1208 -638 0
-630 -1209 639 0
630 1209 -639 0
-630 -1210 640 0
630 1210 -640 0
-630 -1211 641 0
630 1211 -641 0
-630 -1212 642 0
630 1212 -642 0
-630 -1213 643 0
630 1213 -643 0
-630 -1214 644 0
630 1214 -644 0
-630 -1215 645 0
630 1215 -645 0
-630 -1216 646 0
630 1216 -646 0
-630 -1217 647 0
630 1217 -647 0
-630 -1218 648 0
630 1218 -648 0
-630 -1219 649 0
630 1219 -649 0
-630 -1220 650 0
630 1220 -650 0
-630 -1221 651 0
630 1221 -651 0
-631 -1222 632 0
631 1222 -632 0
-631 -1223 633 0
631 1223 -633 0
-631 -1224 634 0
631 1224 -634 0
-631 -1225 635 0
631 1225 -635 0
-631 -1226 636 0
631 1226 -636 0
-631 -1227 637 0
631 1227 -637 0
-631 -1228 638 0
631 1228 -638 0
-631 -1229 639 0
631 1229 -639 0
-631 -1230 640 0
631 1230 -640 0
-631 -1231 641 0
631 1231 -641 0
-631 -1232 642 0
631 1232 -642 0
-631 -1233 643 0
631 1233 -643 0
-631 -1234 644 0
631 1234 -644 0
-631 -1235 645 0
631 1235 -645 0
-631 -1236 646 0
631 1236 -646 0
-631 -1237 647 0
631 1237 -647 0
-631 -1238 648 0
631 1238 -648 0
-631 -1239 649 0
631 1239 -649 0
-631 -1240 650 0
631 1240 -650 0
-631 -1241 651 0
631 1241 -651 0
-632 -1242 633 0
632 1242 -633 0
-632 -1243 634 0
632 1243 -634 0
-632 -1244 635 0
632 1244 -635 0
-632 -1245 636 0
632 1245 -636 0
-632 -1246 637 0
632 1246 -637 0
-632 -1247 638 0
632 1247 -638 0
-632 -1248 639 0
632 1248 -639 0
-632 -1249 640 0
632 1249 -640 0
-632 -1250 641 0
632 1250 -641 0
-632 -1251 642 0
632 1251 -642 0
-632 -1252 643 0
632 1252 -643 0
-632 -1253 644 0
632 1253 -644 0
-632 -1254 645 0
632 1254 -645 0
-632 -1255 646 0
632 1255 -646 0
-632 -1256 647 0
632 1256 -647 0
-632 -1257 648 0
632 1257 -648 0
-632 -1258 649 0
632 1258 -649 0
-632 -1259 650 0
632 1259 -650 0
-632 -1260 651 0
632 1260 -651 0
-633 -1261 634 0
633 1261 -634 0
-633 -1262 635 0
633 1262 -635 0
-633 -1263 636 0
633 1263 -636 0
-633 -1264 637 0
633 1264 -637 0
-633 -1265 638 0
633 1265 -638 0
-633 -1266 639 0
633 1266 -639 0
-633 -1267 640 0
633 1267 -640 0
-633 -1268 641 0
633 1268 -641 0
-633 -1269 642 0
633 1269 -642 0
-633 -1270 643 0
633 1270 -643 0
-633 -1271 644 0
633 1271 -644 0
-633 -1272 645 0
633 1272 -645 0
-633 -1273 646 0
633 1273 -646 0
-633 -1274 647 0
633 1274 -647 0
-633 -1275 648 0
633 1275 -648 0
-633 -1276 649 0
633 1276 -649 0
-633 -1277 650 0
633 1277 -650 0
-633 -1278 651 0
633 1278 -651 0
-634 -1279 635 0
634 1279 -635 0
-634 -1280 636 0
634 1280 -636 0
-634 -1281 637 0
634 1281 -637 0
-634 -1282 638 0
634 1282 -638 0
-634 -1283 639 0
634 1283 -639 0
-634 -1284 640 0
634 1284 -640 0
-634 -1285 641 0
634 1285 -641 0
-634 -1286 642 0
634 1286 -642 0
-634 -1287 643 0
634 1287 -643 0
-634 -1288 644 0
634 1288 -644 0
-634 -1289 645 0
634 1289 -645 0
-634 -1290 646 0
634 1290 -646 0
-634 -1291 647 0
634 1291 -647 0
-634 -1292 648 0
634 1292 -648 0
-634 -1293 649 0
634 1293 -649 0
-634 -1294 650 0
634 1294 -650 0
-634 -1295 651 0
634 1295 -651 0
-635 -1296 636 0
635 1296 -636 0
-635 -1297 637 0
635 1297 -637 0
-635 -1298 638 0
635 1298 -638 0
-635 -1299 639 0
635 1299 -639 0
-635 -1300 640 0
635 1300 -640 0
-635 -1301 641 0
635 1301 -641 0
-635 -1302 642 0
635 1302 -642 0
-635 -1303 643 0
635 1303 -643 0
-635 -1304 644 0
635 1304 -644 0
-635 -1305 645 0
635 1305 -645 0
-635 -1306 646 0
635 1306 -646 0
-635 -1307 647 0
635 1307 -647 0
-635 -1308 648 0
635 1308 -648 0
-635 -1309 649 0
635 1309 -649 0
-635 -1310 650 0
635 1310 -650 0
-635 -1311 651 0
635 1311 -651 0
-636 -1312 637 0
636 1312 -637 0
-636 -1313 638 0
636 1313 -638 0
-636 -1314 639 0
636 1314 -639 0
-636 -1315 640 0
636 1315 -640 0
-636 -1316 641 0
636 1316 -641 0
-636 -1317 642 0
636 1317 -642 0
-636 -1318 643 0
636 1318 -643 0
-636 -1319 644 0
636 1319 -644 0
-636 -1320 645 0
636 1320 -645 0
-636 -1321 646 0
636 1321 -646 0
-636 -1322 647 0
636 1322 -647 0
-636 -1323 648 0
636 1323 -648 0
-636 -1324 649 0
636 1324 -649 0
-636 -1325 650 0
636 1325 -650 0
-636 -1326 651 0
636 1326 -651 0
-637 -1327 638 0
637 1327 -638 0
-637 -1328 639 0
637 1328 -639 0
-637 -1329 640 0
637 1329 -640 0
-637 -1330 641 0
637 1330 -641 0
-637 -1331 642 0
637 1331 -642 0
-637 -1332 643 0
637 1332 -643 0
-637 -1333 644 0
637 1333 -644 0
-637 -1334 645 0
637 1334 -645 0
-637 -1335 646 0
637 1335 -646 0
-637 -1336 647 0
637 1336 -647 0
-637 -1337 648 0
637 1337 -648 0
-637 -1338 649 0
637 1338 -649 0
-637 -1339 650 0
637 1339 -650 0
-637 -1340 651 0
637 1340 -651 0
-638 -1341 639 0
638 1341 -639 0
-638 -1342 640 0
638 1342 -640 0
-638 -1343 641 0
638 1343 -641 0
-638 -1344 642 0
638 1344 -642 0
-638 -1345 643 0
638 1345 -643 0
-638 -1346 644 0
638 1346 -644 0
-638 -1347 645 0
638 1347 -645 0
-638 -1348 646 0
638 1348 -646 0
-638 -1349 647 0
638 1349 -647 0
-638 -1350 648 0
638 1350 -648 0
-638 -1351 649 0
638 1351 -649 0
-638 -1352 650 0
638 1352 -650 0
-638 -1353 651 0
638 1353 -651 0
-639 -1354 640 0
639 1354 -640 0
-639 -1355 641 0
639 1355 -641 0
-639 -1356 642 0
639 1356 -642 0
-639 -1357 643 0
639 1357 -643 0
-639 -1358 644 0
639 1358 -644 0
-639 -1359 645 0
639 1359 -645 0
-639 -1360 646 0
639 1360 -646 0
-639 -1361 647 0
639 1361 -647 0
-639 -1362 648 0
639 1362 -648 0
-639 -1363 649 0
639 1363 -649 0
-639 -1364 650 0
639 1364 -650 0
-639 -1365 651 0
639 1365 -651 0
-640 -1366 641 0
640 1366 -641 0
-640 -1367 642 0
640 1367 -642 0
-640 -1368 643 0
640 1368 -643 0
-640 -1369 644 0
640 1369 -644 0
-640 -1370 645 0
640 1370 -645 0
-640 -1371 646 0
640 1371 -646 0
-640 -1372 647 0
640 1372 -647 0
-640 -1373 648 0
640 1373 -648 0
-640 -1374 649 0
640 1374 -649 0
-640 -1375 650 0
640 1375 -650 0
-640 -1376 651 0
640 1376 -651 0
-641 -1377 642 0
641 1377 -642 0
-641 -1378 643 0
641 1378 -643 0
-641 -1379 644 0
641 1379 -644 0
-641 -1380 645 0
641 1380 -645 0
-641 -1381 646 0
641 1381 -646 0
-641 -1382 647 0
641 1382 -647 0
-641 -1383 648 0
641 1383 -648 0
-641 -1384 649 0
641 1384 -649 0
-641 -1385 650 0
641 1385 -650 0
-641 -1386 651 0
641 1386 -651 0
-642 -1387 643 0
642 1387 -643 0
-642 -1388 644 0
642 1388 -644 0
-642 -1389 645 0
642 1389 -645 0
-642 -1390 646 0
642 1390 -646 0
-642 -1391 647 0
642 1391 -647 0
-642 -1392 648 0
642 1392 -648 0
-642 -1393 649 0
642 1393 -649 0
-642 -1394 650 0
642 1394 -650 0
-642 -1395 651 0
642 1395 -651 0
-643 -1396 644 0
643 1396 -644 0
-643 -1397 645 0
643 1397 -645 0
-643 -1398 646 0
643 1398 -646 0
-643 -1399 647 0
643 1399 -647 0
-643 -1400 648 0
643 1400 -648 0
-643 -1401 649 0
643 1401 -649 0
-643 -1402 650 0
643 1402 -650 0
-643 -1403 651 0
643 1403 -651 0
-644 -1404 645 0
644 1404 -645 0
-644 -1405 646 0
644 1405 -646 0
-644 -1406 647 0
644 1406 -647 0
-644 -1407 648 0
644 1407 -648 0
-644 -1408 649 0
644 1408 -649 0
-644 -1409 650 0
644 1409 -650 0
-644 -1410 651 0
644 1410 -651 0
-645 -1411 646 0
645 1411 -646 0
-645 -1412 647 0
645 1412 -647 0
-645 -1413 648 0
645 1413 -648 0
-645 -1414 649 0
645 1414 -649 0
-645 -1415 650 0
645 1415 -650 0
-645 -1416 651 0
645 1416 -651 0
-646 -1417 647 0
646 1417 -647 0
-646 -1418 648 0
646 1418 -648 0
-646 -1419 649 0
646 1419 -649 0
-646 -1420 650 0
646 1420 -650 0
-646 -1421 651 0
646 1421 -651 0
-647 -1422 648 0
647 1422 -648 0
-647 -1423 649 0
647 1423 -649 0
-647 -1424 650 0
647 1424 -650 0
-647 -1425 651 0
647 1425 -651 0
-648 -1426 649 0
648 1426 -649 0
-648 -1427 650 0
648 1427 -650 0
-648 -1428 651 0
648 1428 -651 0
-649 -1429 650 0
649 1429 -650 0
-649 -1430 651 0
649 1430 -651 0
-650 -1431 651 0
650 1431 -651 0
-652 -691 653 0
652 691 -653 0
-652 -692 654 0
652 692 -654 0
-652 -693 655 0
652 693 -655 0
-652 -694 656 0
652 694 -656 0
-652 -695 657 0
652 695 -657 0
-652 -696 658 0
652 696 -658 0
-652 -697 659 0
652 697 -659 0
-652 -698 660 0
652 698 -660 0
-652 -699 661 0
652 699 -661 0
-652 -700 662 0
652 700 -662 0
-652 -701 663 0
652 701 -663 0
-652 -702 664 0
652 702 -664 0
-652 -703 665 0
652 703 -665 0
-652 -704 666 0
652 704 -666 0
-652 -705 667 0
652 705 -667 0
-652 -706 668 0
652 706 -668 0
-652 -707 669 0
652 707 -669 0
-652 -708 670 0
652 708 -670 0
-652 -709 671 0
652 709 -671 0
-652 -710 672 0
652 710 -672 0
-652 -711 673 0
652 711 -673 0
-652 -712 674 0
652 712 -674 0
-652 -713 675 0
652 713 -675 0
-652 -714 676 0
652 714 -676 0
-652 -715 677 0
652 715 -677 0
-652 -716 678 0
652 716 -678 0
-652 -717 679 0
652 717 -679 0
-652 -718 680 0
652 718 -680 0
-652 -719 681 0
652 719 -681 0
-652 -720 682 0
652 720 -682 0
-652 -721 683 0
652 721 -683 0
-652 -722 684 0
652 722 -684 0
-652 -723 685 0
652 723 -685 0
-652 -724 686 0
652 724 -686 0
-652 -725 687 0
652 725 -687 0
-652 -726 688 0
652 726 -688 0
-652 -727 689 0
652 727 -689 0
-652 -728 690 0
652 728 -690 0
-653 -729 654 0
653 729 -654 0
-653 -730 655 0
653 730 -655 0
-653 -731 656 0
653 731 -656 0
-653 -732 657 0
653 732 -657 0
-653 -733 658 0
653 733 -658 0
-653 -734 659 0
653 734 -659 0
-653 -735 660 0
653 735 -660 0
-653 -736 661 0
653 736 -661 0
-653 -737 662 0
653 737 -662 0
-653 -738 663 0
653 738 -663 0
-653 -739 664 0
653 739 -664 0
-653 -740 665 0
653 740 -665 0
-653 -741 666 0
653 741 -666 0
-653 -742 667 0
653 742 -667 0
-653 -743 668 0
653 743 -668 0
-653 -744 669 0
653 744 -669 0
-653 -745 670 0
653 745 -670 0
-653 -746 671 0
653 746 -671 0
-653 -747 672 0
653 747 -672 0
-653 -748 673 0
653 748 -673 0
-653 -749 674 0
653 749 -674 0
-653 -750 675 0
653 750 -675 0
-653 -751 676 0
653 751 -676 0
-653 -752 677 0
653 752 -677 0
-653 -753 678 0
653 753 -678 0
-653 -754 679 0
653 754 -679 0
-653 -755 680 0
653 755 -680 0
-653 -756 681 0
653 756 -681 0
-653 -757 682 0
653 757 -682 0
-653 -758 683 0
653 758 -683 0
-653 -759 684 0
653 759 -684 0
-653 -760 685 0
653 760 -685 0
-653 -761 686 0
653 761 -686 0
-653 -762 687 0
653 762 -687 0
-653 -763 688 0
653 763 -688 0
-653 -764 689 0
653 764 -689 0
-653 -765 690 0
653 765 -690 0
-654 -766 655 0
654 766 -655 0
-654 -767 656 0
654 767 -656 0
-654 -768 657 0
654 768 -657 0
-654 -769 658 0
654 769 -658 0
-654 -770 659 0
654 770 -659 0
-654 -771 660 0
654 771 -660 0
-654 -772 661 0
654 772 -661 0
-654 -773 662 0
654 773 -662 0
-654 -774 663 0
654 774 -663 0
-654 -775 664 0
654 775 -664 0
-654 -776 665 0
654 776 -665 0
-654 -777 666 0
654 777 -666 0
-654 -778 667 0
654 778 -667 0
-654 -779 668 0
654 779 -668 0
-654 -780 669 0
654 780 -669 0
-654 -781 670 0
654 781 -670 0
-654 -782 671 0
654 782 -671 0
-654 -783 672 0
654 783 -672 0
-654 -784 673 0
654 784 -673 0
-654 -785 674 0
654 785 -674 0
-654 -786 675 0
654 786 -675 0
-654 -787 676 0
654 787 -676 0
-654 -788 677 0
654 788 -677 0
-654 -789 678 0
654 789 -678 0
-654 -790 679 0
654 790 -679 0
-654 -791 680 0
654 791 -680 0
-654 -792 681 0
654 792 -681 0
-654 -793 682 0
654 793 -682 0
-654 -794 683 0
654 794 -683 0
-654 -795 684 0
654 795 -684 0
-654 -796 685 0
654 796 -685 0
-654 -797 686 0
654 797 -686 0
-654 -798 687 0
654 798 -687 0
-654 -799 688 0
654 799 -688 0
-654 -800 689 0
654 800 -689 0
-654 -801 690 0
654 801 -690 0
-655 -802 656 0
655 802 -656 0
-655 -803 657 0
655 803 -657 0
-655 -804 658 0
655 804 -658 0
-655 -805 659 0
655 805 -659 0
-655 -806 660 0
655 806 -660 0
-655 -807 661 0
655 807 -661 0
-655 -808 662 0
655 808 -662 0
-655 -809 663 0
655 809 -663 0
-655 -810 664 0
655 810 -664 0
-655 -811 665 0
655 811 -665 0
-655 -812 666 0
655 812 -666 0
-655 -813 667 0
655 813 -667 0
-655 -814 668 0
655 814 -668 0
-655 -815 669 0
655 815 -669 0
-655 -816 670 0
655 816 -670 0
-655 -817 671 0
655 817 -671 0
-655 -818 672 0
655 818 -672 0
-655 -819 673 0
655 819 -673 0
-655 -820 674 0
655 820 -674 0
-655 -821 675 0
655 821 -675 0
-655 -822 676 0
655 822 -676 0
-655 -823 677 0
655 823 -677 0
-655 -824 678 0
655 824 -678 0
-655 -825 679 0
655 825 -679 0
-655 -826 680 0
655 826 -680 0
-655 -827 681 0
655 827 -681 0
-655 -828 682 0
655 828 -682 0
-655 -829 683 0
655 829 -683 0
-655 -830 684 0
655 830 -684 0
-655 -831 685 0
655 831 -685 0
-655 -832 686 0
655 832 -686 0
-655 -833 687 0
655 833 -687 0
-655 -834 688 0
655 834 -688 0
-655 -835 689 0
655 835 -689 0
-655 -836 690 0
655 836 -690 0
-656 -837 657 0
656 837 -657 0
-656 -838 658 0
656 838 -658 0
-656 -839 659 0
656 839 -659 0
-656 -840 660 0
656 840 -660 0
-656 -841 661 0
656 841 -661 0
-656 -842 662 0
656 842 -662 0
-656 -843 663 0
656 843 -663 0
-656 -844 664 0
656 844 -664 0
-656 -845 665 0
656 845 -665 0
-656 -846 666 0
656 846 -666 0
-656 -847 667 0
656 847 -667 0
-656 -848 668 0
656 848 -668 0
-656 -849 669 0
656 849 -669 0
-656 -850 670 0
656 850 -670 0
-656 -851 671 0
656 851 -671 0
-656 -852 672 0
656 852 -672 0
-656 -853 673 0
656 853 -673 0
-656 -854 674 0
656 854 -674 0
-656 -855 675 0
656 855 -675 0
-656 -856 676 0
656 856 -676 0
-656 -857 677 0
656 857 -677 0
-656 -858 678 0
656 858 -678 0
-656 -859 679 0
656 859 -679 0
-656 -860 680 0
656 860 -680 0
-656 -861 681 0
656 861 -681 0
-656 -862 682 0
656 862 -682 0
-656 -863 683 0
656 863 -683 0
-656 -864 684 0
656 864 -684 0
-656 -865 685 0
656 865 -685 0
-656 -866 686 0
656 866 -686 0
-656 -867 687 0
656 867 -687 0
-656 -868 688 0
656 868 -688 0
-656 -869 689 0
656 869 -689 0
-656 -870 690 0
656 870 -690 0
-657 -871 658 0
657 871 -658 0
-657 -872 659 0
657 872 -659 0
-657 -873 660 0
657 873 -660 0
-657 -874 661 0
657 874 -661 0
-657 -875 662 0
657 875 -662 0
-657 -876 663 0
657 876 -663 0
-657 -877 664 0
657 877 -664 0
-657 -878 665 0
657 878 -665 0
-657 -879 666 0
657 879 -666 0
-657 -880 667 0
657 880 -667 0
-657 -881 668 0
657 881 -668 0
-657 -882 669 0
657 882 -669 0
-657 -883 670 0
657 883 -670 0
-657 -884 671 0
657 884 -671 0
-657 -885 672 0
657 885 -672 0
-657 -886 673 0
657 886 -673 0
-657 -887 674 0
657 887 -674 0
-657 -888 675 0
657 888 -675 0
-657 -889 676 0
657 889 -676 0
-657 -890 677 0
657 890 -677 0
-657 -891 678 0
657 891 -678 0
-657 -892 679 0
657 892 -679 0
-657 -893 680 0
657 893 -680 0
-657 -894 681 0
657 894 -681 0
-657 -895 682 0
657 895 -682 0
-657 -896 683 0
657 896 -683 0
-657 -897 684 0
657 897 -684 0
-657 -898 685 0
657 898 -685 0
-657 -899 686 0
657 899 -686 0
-657 -900 687 0
657 900 -687 0
-657 -901 688 0
657 901 -688 0
-657 -902 689 0
657 902 -689 0
-657 -903 690 0
657 903 -690 0
-658 -904 659 0
658 904 -659 0
-658 -905 660 0
658 905 -660 0
-658 -906 661 0
658 906 -661 0
-658 -907 662 0
658 907 -662 0
-658 -908 663 0
658 908 -663 0
-658 -909 664 0
658 909 -664 0
-658 -910 665 0
658 910 -665 0
-658 -911 666 0
658 911 -666 0
-658 -912 667 0
658 912 -667 0
-658 -913 668 0
658 913 -668 0
-658 -914 669 0
658 914 -669 0
-658 -915 670 0
658 915 -670 0
-658 -916 671 0
658 916 -671 0
-658 -917 672 0
658 917 -672 0
-658 -918 673 0
658 918 -673 0
-658 -919 674 0
658 919 -674 0
-658 -920 675 0
658 920 -675 0
-658 -921 676 0
658 921 -676 0
-658 -922 677 0
658 922 -677 0
-658 -923 678 0
658 923 -678 0
-658 -924 679 0
658 924 -679 0
-658 -925 680 0
658 925 -680 0
-658 -926 681 0
658 926 -681 0
-658 -927 682 0
658 927 -682 0
-658 -928 683 0
658 928 -683 0
-658 -929 684 0
658 929 -684 0
-658 -930 685 0
658 930 -685 0
-658 -931 686 0
658 931 -686 0
-658 -932 687 0
658 932 -687 0
-658 -933 688 0
658 933 -688 0
-658 -934 689 0
658 934 -689 0
-658 -935 690 0
658 935 -690 0
-659 -936 660 0
659 936 -660 0
-659 -937 661 0
659 937 -661 0
-659 -938 662 0
659 938 -662 0
-659 -939 663 0
659 939 -663 0
-659 -940 664 0
659 940 -664 0
-659 -941 665 0
659 941 -665 0
-659 -942 666 0
659 942 -666 0
-659 -943 667 0
659 943 -667 0
-659 -944 668 0
659 944 -668 0
-659 -945 669 0
659 945 -669 0
-659 -946 670 0
659 946 -670 0
-659 -947 671 0
659 947 -671 0
-659 -948 672 0
659 948 -672 0
-659 -949 673 0
659 949 -673 0
-659 -950 674 0
659 950 -674 0
-659 -951 675 0
659 951 -675 0
-659 -952 676 0
659 952 -676 0
-659 -953 677 0
659 953 -677 0
-659 -954 678 0
659 954 -678 0
-659 -955 679 0
659 955 -679 0
-659 -956 680 0
659 956 -680 0
-659 -957 681 0
659 957 -681 0
-659 -958 682 0
659 958 -682 0
-659 -959 683 0
659 959 -683 0
-659 -960 684 0
659 960 -684 0
-659 -961 685 0
659 961 -685 0
-659 -962 686 0
659 962 -686 0
-659 -963 687 0
659 963 -687 0
-659 -964 688 0
659 964 -688 0
-659 -965 689 0
659 965 -689 0
-659 -966 690 0
659 966 -690 0
-660 -967 661 0
660 967 -661 0
-660 -968 662 0
660 968 -662 0
-660 -969 663 0
660 969 -663 0
-660 -970 664 0
660 970 -664 0
-660 -971 665 0
660 971 -665 0
-660 -972 666 0
660 972 -666 0
-660 -973 667 0
660 973 -667 0
-660 -974 668 0
660 974 -668 0
-660 -975 669 0
660 975 -669 0
-660 -976 670 0
660 976 -670 0
-660 -977 671 0
660 977 -671 0
-660 -978 672 0
660 978 -672 0
-660 -979 673 0
660 979 -673 0
-660 -980 674 0
660 980 -674 0
-660 -981 675 0
660 981 -675 0
-660 -982 676 0
660 982 -676 0
-660 -983 677 0
660 983 -677 0
-660 -984 678 0
660 984 -678 0
-660 -985 679 0
660 985 -679 0
-660 -986 680 0
660 986 -680 0
-660 -987 681 0
660 987 -681 0
-660 -988 682 0
660 988 -682 0
-660 -989 683 0
660 989 -683 0
-660 -990 684 0
660 990 -684 0
-660 -991 685 0
660 991 -685 0
-660 -992 686 0
660 992 -686 0
-660 -993 687 0
660 993 -687 0
-660 -994 688 0
660 994 -688 0
-660 -995 689 0
660 995 -689 0
-660 -996 690 0
660 996 -690 0
-661 -997 662 0
661 997 -662 0
-661 -998 663 0
661 998 -663 0
-661 -999 664 0
661 999 -664 0
-661 -1000 665 0
661 1000 -665 0
-661 -1001 666 0
661 1001 -666 0
-661 -1002 667 0
661 1002 -667 0
-661 -1003 668 0
661 1003 -668 0
-661 -1004 669 0
661 1004 -669 0
-661 -1005 670 0
661 1005 -670 0
-661 -1006 671 0
661 1006 -671 0
-661 -1007 672 0
661 1007 -672 0
-661 -1008 673 0
661 1008 -673 0
-661 -1009 674 0
661 1009 -674 0
-661 -1010 675 0
661 1010 -675 0
-661 -1011 676 0
661 1011 -676 0
-661 -1012 677 0
661 1012 -677 0
-661 -1013 678 0
661 1013 -678 0
-661 -1014 679 0
661 1014 -679 0
-661 -1015 680 0
661 1015 -680 0
-661 -1016 681 0
661 1016 -681 0
-661 -1017 682 0
661 1017 -682 0
-661 -1018 683 0
661 1018 -683 0
-661 -1019 684 0
661 1019 -684 0
-661 -1020 685 0
661 1020 -685 0
-661 -1021 686 0
661 1021 -686 0
-661 -1022 687 0
661 1022 -687 0
-661 -1023 688 0
661 1023 -688 0
-661 -1024 689 0
661 1024 -689 0
-661 -1025 690 0
661 1025 -690 0
-662 -1026 663 0
662 1026 -663 0
-662 -1027 664 0
662 1027 -664 0
-662 -1028 665 0
662 1028 -665 0
-662 -1029 666 0
662 1029 -666 0
-662 -1030 667 0
662 1030 -667 0
-662 -1031 668 0
662 1031 -668 0
-662 -1032 669 0
662 1032 -669 0
-662 -1033 670 0
662 1033 -670 0
-662 -1034 671 0
662 1034 -671 0
-662 -1035 672 0
662 1035 -672 0
-662 -1036 673 0
662 1036 -673 0
-662 -1037 674 0
662 1037 -674 0
-662 -1038 675 0
662 1038 -675 0
-662 -1039 676 0
662 1039 -676 0
-662 -1040 677 0
662 1040 -677 0
-662 -1041 678 0
662 1041 -678 0
-662 -1042 679 0
662 1042 -679 0
-662 -1043 680 0
662 1043 -680 0
-662 -1044 681 0
662 1044 -681 0
-662 -1045 682 0
662 1045 -682 0
-662 -1046 683 0
662 1046 -683 0
-662 -1047 684 0
662 1047 -684 0
-662 -1048 685 0
662 1048 -685 0
-662 -1049 686 0
662 1049 -686 0
-662 -1050 687 0
662 1050 -687 0
-662 -1051 688 0
662 1051 -688 0
-662 -1052 689 0
662 1052 -689 0
-662 -1053 690 0
662 1053 -690 0
-663 -1054 664 0
663 1054 -664 0
-663 -1055 665 0
663 1055 -665 0
-663 -1056 666 0
663 1056 -666 0
-663 -1057 667 0
663 1057 -667 0
-663 -1058 668 0
663 1058 -668 0
-663 -1059 669 0
663 1059 -669 0
-663 -1060 670 0
663 1060 -670 0
-663 -1061 671 0
663 1061 -671 0
-663 -1062 672 0
663 1062 -672 0
-663 -1063 673 0
663 1063 -673 0
-663 -1064 674 0
663 1064 -674 0
-663 -1065 675 0
663 1065 -675 0
-663 -1066 676 0
663 1066 -676 0
-663 -1067 677 0
663 1067 -677 0
-663 -1068 678 0
663 1068 -678 0
-663 -1069 679 0
663 1069 -679 0
-663 -1070 680 0
663 1070 -680 0
-663 -1071 681 0
663 1071 -681 0
-663 -1072 682 0
663 1072 -682 0
-663 -1073 683 0
663 1073 -683 0
-663 -1074 684 0
663 1074 -684 0
-663 -1075 685 0
663 1075 -685 0
-663 -1076 686 0
663 1076 -686 0
-663 -1077 687 0
663 1077 -687 0
-663 -1078 688 0
663 1078 -688 0
-663 -1079 689 0
663 1079 -689 0
-663 -1080 690 0
663 1080 -690 0
-664 -1081 665 0
664 1081 -665 0
-664 -1082 666 0
664 1082 -666 0
-664 -1083 667 0
664 1083 -667 0
-664 -1084 668 0
664 1084 -668 0
-664 -1085 669 0
664 1085 -669 0
-664 -1086 670 0
664 1086 -670 0
-664 -1087 671 0
664 1087 -671 0
-664 -1088 672 0
664 1088 -672 0
-664 -1089 673 0
664 1089 -673 0
-664 -1090 674 0
664 1090 -674 0
-664 -1091 675 0
664 1091 -675 0
-664 -1092 676 0
664 1092 -676 0
-664 -1093 677 0
664 1093 -677 0
-664 -1094 678 0
664 1094 -678 0
-664 -1095 679 0
664 1095 -679 0
-664 -1096 680 0
664 1096 -680 0
-664 -1097 681 0
664 1097 -681 0
-664 -1098 682 0
664 1098 -682 0
-664 -1099 683 0
664 1099 -683 0
-664 -1100 684 0
664 1100 -684 0
-664 -1101 685 0
664 1101 -685 0
-664 -1102 686 0
664 1102 -686 0
-664 -1103 687 0
664 1103 -687 0
-664 -1104 688 0
664 1104 -688 0
-664 -1105 689 0
664 1105 -689 0
-664 -1106 690 0
664 1106 -690 0
-665 -1107 666 0
665 1107 -666 0
-665 -1108 667 0
665 1108 -667 0
-665 -1109 668 0
665 1109 -668 0
-665 -1110 669 0
665 1110 -669 0
-665 -1111 670 0
665 1111 -670 0
-665 -1112 671 0
665 1112 -671 0
-665 -1113 672 0
665 1113 -672 0
-665 -1114 673 0
665 1114 -673 0
-665 -1115 674 0
665 1115 -674 0
-665 -1116 675 0
665 1116 -675 0
-665 -1117 676 0
665 1117 -676 0
-665 -1118 677 0
665 1118 -677 0
-665 -1119 678 0
665 1119 -678 0
-665 -1120 679 0
665 1120 -679 0
-665 -1121 680 0
665 1121 -680 0
-665 -1122 681 0
665 1122 -681 0
-665 -1123 682 0
665 1123 -682 0
-665 -1124 683 0
665 1124 -683 0
-665 -1125 684 0
665 1125 -684 0
-665 -1126 685 0
665 1126 -685 0
-665 -1127 686 0
665 1127 -686 0
-665 -1128 687 0
665 1128 -687 0
-665 -1129 688 0
665 1129 -688 0
-665 -1130 689 0
665 1130 -689 0
-665 -1131 690 0
665 1131 -690 0
-666 -1132 667 0
666 1132 -667 0
-666 -1133 668 0
666 1133 -668 0
-666 -1134 669 0
666 1134 -669 0
-666 -1135 670 0
666 1135 -670 0
-666 -1136 671 0
666 1136 -671 0
-666 -1137 672 0
666 1137 -672 0
-666 -1138 673 0
666 1138 -673 0
-666 -1139 674 0
666 1139 -674 0
-666 -1140 675 0
666 1140 -675 0
-666 -1141 676 0
666 1141 -676 0
-666 -1142 677 0
666 1142 -677 0
-666 -1143 678 0
666 1143 -678 0
-666 -1144 679 0
666 1144 -679 0
-666 -1145 680 0
666 1145 -680 0
-666 -1146 681 0
666 1146 -681 0
-666 -1147 682 0
666 1147 -682 0
-666 -1148 683 0
666 1148 -683 0
-666 -1149 684 0
666 1149 -684 0
-666 -1150 685 0
666 1150 -685 0
-666 -1151 686 0
666 1151 -686 0
-666 -1152 687 0
666 1152 -687 0
-666 -1153 688 0
666 1153 -688 0
-666 -1154 689 0
666 1154 -689 0
-666 -1155 690 0
666 1155 -690 0
-667 -1156 668 0
667 1156 -668 0
-667 -1157 669 0
667 1157 -669 0
-667 -1158 670 0
667 1158 -670 0
-667 -1159 671 0
667 1159 -671 0
-667 -1160 672 0
667 1160 -672 0
-667 -1161 673 0
667 1161 -673 0
-667 -1162 674 0
667 1162 -674 0
-667 -1163 675 0
667 1163 -675 0
-667 -1164 676 0
667 1164 -676 0
-667 -1165 677 0
667 1165 -677 0
-667 -1166 678 0
667 1166 -678 0
-667 -1167 679 0
667 1167 -679 0
-667 -1168 680 0
667 1168 -680 0
-667 -1169 681 0
667 1169 -681 0
-667 -1170 682 0
667 1170 -682 0
-667 -1171 683 0
667 1171 -683 0
-667 -1172 684 0
667 1172 -684 0
-667 -1173 685 0
667 1173 -685 0
-667 -1174 686 0
667 1174 -686 0
-667 -1175 687 0
667 1175 -687 0
-667 -1176 688 0
667 1176 -688 0
-667 -1177 689 0
667 1177 -689 0
-667 -1178 690 0
667 1178 -690 0
-668 -1179 669 0
668 1179 -669 0
-668 -1180 670 0
668 1180 -670 0
-668 -1181 671 0
668 1181 -671 0
-668 -1182 672 0
668 1182 -672 0
-668 -1183 673 0
668 1183 -673 0
-668 -1184 674 0
668 1184 -674 0
-668 -1185 675 0
668 1185 -675 0
-668 -1186 676 0
668 1186 -676 0
-668 -1187 677 0
668 1187 -677 0
-668 -1188 678 0
668 1188 -678 0
-668 -1189 679 0
668 1189 -679 0
-668 -1190 680 0
668 1190 -680 0
-668 -1191 681 0
668 1191 -681 0
-668 -1192 682 0
668 1192 -682 0
-668 -1193 683 0
668 1193 -683 0
-668 -1194 684 0
668 1194 -684 0
-668 -1195 685 0
668 1195 -685 0
-668 -1196 686 0
668 1196 -686 0
-668 -1197 687 0
668 1197 -687 0
-668 -1198 688 0
668 1198 -688 0
-668 -1199 689 0
668 1199 -689 0
-668 -1200 690 0
668 1200 -690 0
-669 -1201 670 0
669 1201 -670 0
-669 -1202 671 0
669 1202 -671 0
-669 -1203 672 0
669 1203 -672 0
-669 -1204 673 0
669 1204 -673 0
-669 -1205 674 0
669 1205 -674 0
-669 -1206 675 0
669 1206 -675 0
-669 -1207 676 0
669 1207 -676 0
-669 -1208 677 0
669 1208 -677 0
-669 -1209 678 0
669 1209 -678 0
-669 -1210 679 0
669 1210 -679 0
-669 -1211 680 0
669 1211 -680 0
-669 -1212 681 0
669 1212 -681 0
-669 -1213 682 0
669 1213 -682 0
-669 -1214 683 0
669 1214 -683 0
-669 -1215 684 0
669 1215 -684 0
-669 -1216 685 0
669 1216 -685 0
-669 -1217 686 0
669 1217 -686 0
-669 -1218 687 0
669 1218 -687 0
-669 -1219 688 0
669 1219 -688 0
-669 -1220 689 0
669 1220 -689 0
-669 -1221 690 0
669 1221 -690 0
-670 -1222 671 0
670 1222 -671 0
-670 -1223 672 0
670 1223 -672 0
-670 -1224 673 0
670 1224 -673 0
-670 -1225 674 0
670 1225 -674 0
-670 -1226 675 0
670 1226 -675 0
-670 -1227 676 0
670 1227 -676 0
-670 -1228 677 0
670 1228 -677 0
-670 -1229 678 0
670 1229 -678 0
-670 -1230 679 0
670 1230 -679 0
-670 -1231 680 0
670 1231 -680 0
-670 -1232 681 0
670 1232 -681 0
-670 -1233 682 0
670 1233 -682 0
-670 -1234 683 0
670 1234 -683 0
-670 -1235 684 0
670 1235 -684 0
-670 -1236 685 0
670 1236 -685 0
-670 -1237 686 0
670 1237 -686 0
-670 -1238 687 0
670 1238 -687 0
-670 -1239 688 0
670 1239 -688 0
-670 -1240 689 0
670 1240 -689 0
-670 -1241 690 0
670 1241 -690 0
-671 -1242 672 0
671 1242 -672 0
-671 -1243 673 0
671 1243 -673 0
-671 -1244 674 0
671 1244 -674 0
-671 -1245 675 0
671 1245 -675 0
-671 -1246 676 0
671 1246 -676 0
-671 -1247 677 0
671 1247 -677 0
-671 -1248 678 0
671 1248 -678 0
-671 -1249 679 0
671 1249 -679 0
-671 -1250 680 0
671 1250 -680 0
-671 -1251 681 0
671 1251 -681 0
-671 -1252 682 0
671 1252 -682 0
-671 -1253 683 0
671 1253 -683 0
-671 -1254 684 0
671 1254 -684 0
-671 -1255 685 0
671 1255 -685 0
-671 -1256 686 0
671 1256 -686 0
-671 -1257 687 0
671 1257 -687 0
-671 -1258 688 0
671 1258 -688 0
-671 -1259 689 0
671 1259 -689 0
-671 -1260 690 0
671 1260 -690 0
-672 -1261 673 0
672 1261 -673 0
-672 -1262 674 0
672 1262 -674 0
-672 -1263 675 0
672 1263 -675 0
-672 -1264 676 0
672 1264 -676 0
-672 -1265 677 0
672 1265 -677 0
-672 -1266 678 0
672 1266 -678 0
-672 -1267 679 0
672 1267 -679 0
-672 -1268 680 0
672 1268 -680 0
-672 -1269 681 0
672 1269 -681 0
-672 -1270 682 0
672 1270 -682 0
-672 -1271 683 0
672 1271 -683 0
-672 -1272 684 0
672 1272 -684 0
-672 -1273 685 0
672 1273 -685 0
-672 -1274 686 0
672 1274 -686 0
-672 -1275 687 0
672 1275 -687 0
-672 -1276 688 0
672 1276 -688 0
-672 -1277 689 0
672 1277 -689 0
-672 -1278 690 0
672 1278 -690 0
-673 -1279 674 0
673 1279 -674 0
-673 -1280 675 0
673 1280 -675 0
-673 -1281 676 0
673 1281 -676 0
-673 -1282 677 0
673 1282 -677 0
-673 -1283 678 0
673 1283 -678 0
-673 -1284 679 0
673 1284 -679 0
-673 -1285 680 0
673 1285 -680 0
-673 -1286 681 0
673 1286 -681 0
-673 -1287 682 0
673 1287 -682 0
-673 -1288 683 0
673 1288 -683 0
-673 -1289 684 0
673 1289 -684 0
-673 -1290 685 0
673 1290 -685 0
-673 -1291 686 0
673 1291 -686 0
-673 -1292 687 0
673 1292 -687 0
-673 -1293 688 0
673 1293 -688 0
-673 -1294 689 0
673 1294 -689 0
-673 -1295 690 0
673 1295 -690 0
-674 -1296 675 0
674 1296 -675 0
-674 -1297 676 0
674 1297 -676 0
-674 -1298 677 0
674 1298 -677 0
-674 -1299 678 0
674 1299 -678 0
-674 -1300 679 0
674 1300 -679 0
-674 -1301 680 0
674 1301 -680 0
-674 -1302 681 0
674 1302 -681 0
-674 -1303 682 0
674 1303 -682 0
-674 -1304 683 0
674 1304 -683 0
-674 -1305 684 0
674 1305 -684 0
-674 -1306 685 0
674 1306 -685 0
-674 -1307 686 0
674 1307 -686 0
-674 -1308 687 0
674 1308 -687 0
-674 -1309 688 0
674 1309 -688 0
-674 -1310 689 0
674 1310 -689 0
-674 -1311 690 0
674 1311 -690 0
-675 -1312 676 0
675 1312 -676 0
-675 -1313 677 0
675 1313 -677 0
-675 -1314 678 0
675 1314 -678 0
-675 -1315 679 0
675 1315 -679 0
-675 -1316 680 0
675 1316 -680 0
-675 -1317 681 0
675 1317 -681 0
-675 -1318 682 0
675 1318 -682 0
-675 -1319 683 0
675 1319 -683 0
-675 -1320 684 0
675 1320 -684 0
-675 -1321 685 0
675 1321 -685 0
-675 -1322 686 0
675 1322 -686 0
-675 -1323 687 0
675 1323 -687 0
-675 -1324 688 0
675 1324 -688 0
-675 -1325 689 0
675 1325 -689 0
-675 -1326 690 0
675 1326 -690 0
-676 -1327 677 0
676 1327 -677 0
-676 -1328 678 0
676 1328 -678 0
-676 -1329 679 0
676 1329 -679 0
-676 -1330 680 0
676 1330 -680 0
-676 -1331 681 0
676 1331 -681 0
-676 -1332 682 0
676 1332 -682 0
-676 -1333 683 0
676 1333 -683 0
-676 -1334 684 0
676 1334 -684 0
-676 -1335 685 0
676 1335 -685 0
-676 -1336 686 0
676 1336 -686 0
-676 -1337 687 0
676 1337 -687 0
-676 -1338 688 0
676 1338 -688 0
-676 -1339 689 0
676 1339 -689 0
-676 -1340 690 0
676 1340 -690 0
-677 -1341 678 0
677 1341 -678 0
-677 -1342 679 0
677 1342 -679 0
-677 -1343 680 0
677 1343 -680 0
-677 -1344 681 0
677 1344 -681 0
-677 -1345 682 0
677 1345 -682 0
-677 -1346 683 0
677 1346 -683 0
-677 -1347 684 0
677 1347 -684 0
-677 -1348 685 0
677 1348 -685 0
-677 -1349 686 0
677 1349 -686 0
-677 -1350 687 0
677 1350 -687 0
-677 -1351 688 0
677 1351 -688 0
-677 -1352 689 0
677 1352 -689 0
-677 -1353 690 0
677 1353 -690 0
-678 -1354 679 0
678 1354 -679 0
-678 -1355 680 0
678 1355 -680 0
-678 -1356 681 0
678 1356 -681 0
-678 -1357 682 0
678 1357 -682 0
-678 -1358 683 0
678 1358 -683 0
-678 -1359 684 0
678 1359 -684 0
-678 -1360 685 0
678 1360 -685 0
-678 -1361 686 0
678 1361 -686 0
-678 -1362 687 0
678 1362 -687 0
-678 -1363 688 0
678 1363 -688 0
-678 -1364 689 0
678 1364 -689 0
-678 -1365 690 0
678 1365 -690 0
-679 -1366 680 0
679 1366 -680 0
-679 -1367 681 0
679 1367 -681 0
-679 -1368 682 0
679 1368 -682 0
-679 -1369 683 0
679 1369 -683 0
-679 -1370 684 0
679 1370 -684 0
-679 -1371 685 0
679 1371 -685 0
-679 -1372 686 0
679 1372 -686 0
-679 -1373 687 0
679 1373 -687 0
-679 -1374 688 0
679 1374 -688 0
-679 -1375 689 0
679 1375 -689 0
-679 -1376 690 0
679 1376 -690 0
-680 -1377 681 0
680 1377 -681 0
-680 -1378 682 0
680 1378 -682 0
-680 -1379 683 0
680 1379 -683 0
-680 -1380 684 0
680 1380 -684 0
-680 -1381 685 0
680 1381 -685 0
-680 -1382 686 0
680 1382 -686 0
-680 -1383 687 0
680 1383 -687 0
-680 -1384 688 0
680 1384 -688 0
-680 -1385 689 0
680 1385 -689 0
-680 -1386 690 0
680 1386 -690 0
-681 -1387 682 0
681 1387 -682 0
-681 -1388 683 0
681 1388 -683 0
-681 -1389 684 0
681 1389 -684 0
-681 -1390 685 0
681 1390 -685 0
-681 -1391 686 0
681 1391 -686 0
-681 -1392 687 0
681 1392 -687 0
-681 -1393 688 0
681 1393 -688 0
-681 -1394 689 0
681 1394 -689 0
-681 -1395 690 0
681 1395 -690 0
-682 -1396 683 0
682 1396 -683 0
-682 -1397 684 0
682 1397 -684 0
-682 -1398 685 0
682 1398 -685 0
-682 -1399 686 0
682 1399 -686 0
-682 -1400 687 0
682 1400 -687 0
-682 -1401 688 0
682 1401 -688 0
-682 -1402 689 0
682 1402 -689 0
-682 -1403 690 0
682 1403 -690 0
-683 -1404 684 0
683 1404 -684 0
-683 -1405 685 0
683 1405 -685 0
-683 -1406 686 0
683 1406 -686 0
-683 -1407 687 0
683 1407 -687 0
-683 -1408 688 0
683 1408 -688 0
-683 -1409 689 0
683 1409 -689 0
-683 -1410 690 0
683 1410 -690 0
-684 -1411 685 0
684 1411 -685 0
-684 -1412 686 0
684 1412 -686 0
-684 -1413 687 0
684 1413 -687 0
-684 -1414 688 0
684 1414 -688 0
-684 -1415 689 0
684 1415 -689 0
-684 -1416 690 0
684 1416 -690 0
-685 -1417 686 0
685 1417 -686 0
-685 -1418 687 0
685 1418 -687 0
-685 -1419 688 0
685 1419 -688 0
-685 -1420 689 0
685 1420 -689 0
-685 -1421 690 0
685 1421 -690 0
-686 -1422 687 0
686 1422 -687 0
-686 -1423 688 0
686 1423 -688 0
-686 -1424 689 0
686 1424 -689 0
-686 -1425 690 0
686 1425 -690 0
-687 -1426 688 0
687 1426 -688 0
-687 -1427 689 0
687 1427 -689 0
-687 -1428 690 0
687 1428 -690 0
-688 -1429 689 0
688 1429 -689 0
-688 -1430 690 0
688 1430 -690 0
-689 -1431 690 0
689 1431 -690 0
-691 -729 692 0
691 729 -692 0
-691 -730 693 0
691 730 -693 0
-691 -731 694 0
691 731 -694 0
-691 -732 695 0
691 732 -695 0
-691 -733 696 0
691 733 -696 0
-691 -734 697 0
691 734 -697 0
-691 -735 698 0
691 735 -698 0
-691 -736 699 0
691 736 -699 0
-691 -737 700 0
691 737 -700 0
-691 -738 701 0
691 738 -701 0
-691 -739 702 0
691 739 -702 0
-691 -740 703 0
691 740 -703 0
-691 -741 704 0
691 741 -704 0
-691 -742 705 0
691 742 -705 0
-691 -743 706 0
691 743 -706 0
-691 -744 707 0
691 744 -707 0
-691 -745 708 0
691 745 -708 0
-691 -746 709 0
691 746 -709 0
-691 -747 710 0
691 747 -710 0
-691 -748 711 0
691 748 -711 0
-691 -749 712 0
691 749 -712 0
-691 -750 713 0
691 750 -713 0
-691 -751 714 0
691 751 -714 0
-691 -752 715 0
691 752 -715 0
-691 -753 716 0
691 753 -716 0
-691 -754 717 0
691 754 -717 0
-691 -755 718 0
691 755 -718 0
-691 -756 719 0
691 756 -719 0
-691 -757 720 0
691 757 -720 0
-691 -758 721 0
691 758 -721 0
-691 -759 722 0
691 759 -722 0
-691 -760 723 0
691 760 -723 0
-691 -761 724 0
691 761 -724 0
-691 -762 725 0
691 762 -725 0
-691 -763 726 0
691 763 -726 0
-691 -764 727 0
691 764 -727 0
-691 -765 728 0
691 765 -728 0
-692 -766 693 0
692 766 -693 0
-692 -767 694 0
692 767 -694 0
-692 -768 695 0
692 768 -695 0
-692 -769 696 0
692 769 -696 0
-692 -770 697 0
692 770 -697 0
-692 -771 698 0
692 771 -698 0
-692 -772 699 0
692 772 -699 0
-692 -773 700 0
692 773 -700 0
-692 -774 701 0
692 774 -701 0
-692 -775 702 0
692 775 -702 0
-692 -776 703 0
692 776 -703 0
-692 -777 704 0
692 777 -704 0
-692 -778 705 0
692 778 -705 0
-692 -779 706 0
692 779 -706 0
-692 -780 707 0
692 780 -707 0
-692 -781 708 0
692 781 -708 0
-692 -782 709 0
692 782 -709 0
-692 -783 710 0
692 783 -710 0
-692 -784 711 0
692 784 -711 0
-692 -785 712 0
692 785 -712 0
-692 -786 713 0
692 786 -713 0
-692 -787 714 0
692 787 -714 0
-692 -788 715 0
692 788 -715 0
-692 -789 716 0
692 789 -716 0
-692 -790 717 0
692 790 -717 0
-692 -791 718 0
692 791 -718 0
-692 -792 719 0
692 792 -719 0
-692 -793 720 0
692 793 -720 0
-692 -794 721 0
692 794 -721 0
-692 -795 722 0
692 795 -722 0
-692 -796 723 0
692 796 -723 0
-692 -797 724 0
692 797 -724 0
-692 -798 725 0
692 798 -725 0
-692 -799 726 0
692 799 -726 0
-692 -800 727 0
692 800 -727 0
-692 -801 728 0
692 801 -728 0
-693 -802 694 0
693 802 -694 0
-693 -803 695 0
693 803 -695 0
-693 -804 696 0
693 804 -696 0
-693 -805 697 0
693 805 -697 0
-693 -806 698 0
693 806 -698 0
-693 -807 699 0
693 807 -699 0
-693 -808 700 0
693 808 -700 0
-693 -809 701 0
693 809 -701 0
-693 -810 702 0
693 810 -702 0
-693 -811 703 0
693 811 -703 0
-693 -812 704 0
693 812 -704 0
-693 -813 705 0
693 813 -705 0
-693 -814 706 0
693 814 -706 0
-693 -815 707 0
693 815 -707 0
-693 -816 708 0
693 816 -708 0
-693 -817 709 0
693 817 -709 0
-693 -818 710 0
693 818 -710 0
-693 -819 711 0
693 819 -711 0
-693 -820 712 0
693 820 -712 0
-693 -821 713 0
693 821 -713 0
-693 -822 714 0
693 822 -714 0
-693 -823 715 0
693 823 -715 0
-693 -824 716 0
693 824 -716 0
-693 -825 717 0
693 825 -717 0
-693 -826 718 0
693 826 -718 0
-693 -827 719 0
693 827 -719 0
-693 -828 720 0
693 828 -720 0
-693 -829 721 0
693 829 -721 0
-693 -830 722 0
693 830 -722 0
-693 -831 723 0
693 831 -723 0
-693 -832 724 0
693 832 -724 0
-693 -833 725 0
693 833 -725 0
-693 -834 726 0
693 834 -726 0
-693 -835 727 0
693 835 -727 0
-693 -836 728 0
693 836 -728 0
-694 -837 695 0
694 837 -695 0
-694 -838 696 0
694 838 -696 0
-694 -839 697 0
694 839 -697 0
-694 -840 698 0
694 840 -698 0
-694 -841 699 0
694 841 -699 0
-694 -842 700 0
694 842 -700 0
-694 -843 701 0
694 843 -701 0
-694 -844 702 0
694 844 -702 0
-694 -845 703 0
694 845 -703 0
-694 -846 704 0
694 846 -704 0
-694 -847 705 0
694 847 -705 0
-694 -848 706 0
694 848 -706 0
-694 -849 707 0
694 849 -707 0
-694 -850 708 0
694 850 -708 0
-694 -851 709 0
694 851 -709 0
-694 -852 710 0
694 852 -710 0
-694 -853 711 0
694 853 -711 0
-694 -854 712 0
694 854 -712 0
-694 -855 713 0
694 855 -713 0
-694 -856 714 0
694 856 -714 0
-694 -857 715 0
694 857 -715 0
-694 -858 716 0
694 858 -716 0
-694 -859 717 0
694 859 -717 0
-694 -860 718 0
694 860 -718 0
-694 -861 719 0
694 861 -719 0
-694 -862 720 0
694 862 -720 0
-694 -863 721 0
694 863 -721 0
-694 -864 722 0
694 864 -722 0
-694 -865 723 0
694 865 -723 0
-694 -866 724 0
694 866 -724 0
-694 -867 725 0
694 867 -725 0
-694 -868 726 0
694 868 -726 0
-694 -869 727 0
694 869 -727 0
-694 -870 728 0
694 870 -728 0
-695 -871 696 0
695 871 -696 0
-695 -872 697 0
695 872 -697 0
-695 -873 698 0
695 873 -698 0
-695 -874 699 0
695 874 -699 0
-695 -875 700 0
695 875 -700 0
-695 -876 701 0
695 876 -701 0
-695 -877 702 0
695 877 -702 0
-695 -878 703 0
695 878 -703 0
-695 -879 704 0
695 879 -704 0
-695 -880 705 0
695 880 -705 0
-695 -881 706 0
695 881 -706 0
-695 -882 707 0
695 882 -707 0
-695 -883 708 0
695 883 -708 0
-695 -884 709 0
695 884 -709 0
-695 -885 710 0
695 885 -710 0
-695 -886 711 0
695 886 -711 0
-695 -887 712 0
695 887 -712 0
-695 -888 713 0
695 888 -713 0
-695 -889 714 0
695 889 -714 0
-695 -890 715 0
695 890 -715 0
-695 -891 716 0
695 891 -716 0
-695 -892 717 0
695 892 -717 0
-695 -893 718 0
695 893 -718 0
-695 -894 719 0
695 894 -719 0
-695 -895 720 0
695 895 -720 0
-695 -896 721 0
695 896 -721 0
-695 -897 722 0
695 897 -722 0
-695 -898 723 0
695 898 -723 0
-695 -899 724 0
695 899 -724 0
-695 -900 725 0
695 900 -725 0
-695 -901 726 0
695 901 -726 0
-695 -902 727 0
695 902 -727 0
-695 -903 728 0
695 903 -728 0
-696 -904 697 0
696 904 -697 0
-696 -905 698 0
696 905 -698 0
-696 -906 699 0
696 906 -699 0
-696 -907 700 0
696 907 -700 0
-696 -908 701 0
696 908 -701 0
-696 -909 702 0
696 909 -702 0
-696 -910 703 0
696 910 -703 0
-696 -911 704 0
696 911 -704 0
-696 -912 705 0
696 912 -705 0
-696 -913 706 0
696 913 -706 0
-696 -914 707 0
696 914 -707 0
-696 -915 708 0
696 915 -708 0
-696 -916 709 0
696 916 -709 0
-696 -917 710 0
696 917 -710 0
-696 -918 711 0
696 918 -711 0
-696 -919 712 0
696 919 -712 0
-696 -920 713 0
696 920 -713 0
-696 -921 714 0
696 921 -714 0
-696 -922 715 0
696 922 -715 0
-696 -923 716 0
696 923 -716 0
-696 -924 717 0
696 924 -717 0
-696 -925 718 0
696 925 -718 0
-696 -926 719 0
696 926 -719 0
-696 -927 720 0
696 927 -720 0
-696 -928 721 0
696 928 -721 0
-696 -929 722 0
696 929 -722 0
-696 -930 723 0
696 930 -723 0
-696 -931 724 0
696 931 -724 0
-696 -932 725 0
696 932 -725 0
-696 -933 726 0
696 933 -726 0
-696 -934 727 0
696 934 -727 0
-696 -935 728 0
696 935 -728 0
-697 -936 698 0
697 936 -698 0
-697 -937 699 0
697 937 -699 0
-697 -938 700 0
697 938 -700 0
-697 -939 701 0
697 939 -701 0
-697 -940 702 0
697 940 -702 0
-697 -941 703 0
697 941 -703 0
-697 -942 704 0
697 942 -704 0
-697 -943 705 0
697 943 -705 0
-697 -944 706 0
697 944 -706 0
-697 -945 707 0
697 945 -707 0
-697 -946 708 0
697 946 -708 0
-697 -947 709 0
697 947 -709 0
-697 -948 710 0
697 948 -710 0
-697 -949 711 0
697 949 -711 0
-697 -950 712 0
697 950 -712 0
-697 -951 713 0
697 951 -713 0
-697 -952 714 0
697 952 -714 0
-697 -953 715 0
697 953 -715 0
-697 -954 716 0
697 954 -716 0
-697 -955 717 0
697 955 -717 0
-697 -956 718 0
697 956 -718 0
-697 -957 719 0
697 957 -719 0
-697 -958 720 0
697 958 -720 0
-697 -959 721 0
697 959 -721 0
-697 -960 722 0
697 960 -722 0
-697 -961 723 0
697 961 -723 0
-697 -962 724 0
697 962 -724 0
-697 -963 725 0
697 963 -725 0
-697 -964 726 0
697 964 -726 0
-697 -965 727 0
697 965 -727 0
-697 -966 728 0
697 966 -728 0
-698 -967 699 0
698 967 -699 0
-698 -968 700 0
698 968 -700 0
-698 -969 701 0
698 969 -701 0
-698 -970 702 0
698 970 -702 0
-698 -971 703 0
698 971 -703 0
-698 -972 704 0
698 972 -704 0
-698 -973 705 0
698 973 -705 0
-698 -974 706 0
698 974 -706 0
-698 -975 707 0
698 975 -707 0
-698 -976 708 0
698 976 -708 0
-698 -977 709 0
698 977 -709 0
-698 -978 710 0
698 978 -710 0
-698 -979 711 0
698 979 -711 0
-698 -980 712 0
698 980 -712 0
-698 -981 713 0
698 981 -713 0
-698 -982 714 0
698 982 -714 0
-698 -983 715 0
698 983 -715 0
-698 -984 716 0
698 984 -716 0
-698 -985 717 0
698 985 -717 0
-698 -986 718 0
698 986 -718 0
-698 -987 719 0
698 987 -719 0
-698 -988 720 0
698 988 -720 0
-698 -989 721 0
698 989 -721 0
-698 -990 722 0
698 990 -722 0
-698 -991 723 0
698 991 -723 0
-698 -992 724 0
698 992 -724 0
-698 -993 725 0
698 993 -725 0
-698 -994 726 0
698 994 -726 0
-698 -995 727 0
698 995 -727 0
-698 -996 728 0
698 996 -728 0
-699 -997 700 0
699 997 -700 0
-699 -998 701 0
699 998 -701 0
-699 -999 702 0
699 999 -702 0
-699 -1000 703 0
699 1000 -703 0
-699 -1001 704 0
699 1001 -704 0
-699 -1002 705 0
699 1002 -705 0
-699 -1003 706 0
699 1003 -706 0
-699 -1004 707 0
699 1004 -707 0
-699 -1005 708 0
699 1005 -708 0
-699 -1006 709 0
699 1006 -709 0
-699 -1007 710 0
699 1007 -710 0
-699 -1008 711 0
699 1008 -711 0
-699 -1009 712 0
699 1009 -712 0
-699 -1010 713 0
699 1010 -713 0
-699 -1011 714 0
699 1011 -714 0
-699 -1012 715 0
699 1012 -715 0
-699 -1013 716 0
699 1013 -716 0
-699 -1014 717 0
699 1014 -717 0
-699 -1015 718 0
699 1015 -718 0
-699 -1016 719 0
699 1016 -719 0
-699 -1017 720 0
699 1017 -720 0
-699 -1018 721 0
699 1018 -721 0
-699 -1019 722 0
699 1019 -722 0
-699 -1020 723 0
699 1020 -723 0
-699 -1021 724 0
699 1021 -724 0
-699 -1022 725 0
699 1022 -725 0
-699 -1023 726 0
699 1023 -726 0
-699 -1024 727 0
699 1024 -727 0
-699 -1025 728 0
699 1025 -728 0
-700 -1026 701 0
700 1026 -701 0
-700 -1027 702 0
700 1027 -702 0
-700 -1028 703 0
700 1028 -703 0
-700 -1029 704 0
700 1029 -704 0
-700 -1030 705 0
700 1030 -705 0
-700 -1031 706 0
700 1031 -706 0
-700 -1032 707 0
700 1032 -707 0
-700 -1033 708 0
700 1033 -708 0
-700 -1034 709 0
700 1034 -709 0
-700 -1035 710 0
700 1035 -710 0
-700 -1036 711 0
700 1036 -711 0
-700 -1037 712 0
700 1037 -712 0
-700 -1038 713 0
700 1038 -713 0
-700 -1039 714 0
700 1039 -714 0
-700 -1040 715 0
700 1040 -715 0
-700 -1041 716 0
700 1041 -716 0
-700 -1042 717 0
700 1042 -717 0
-700 -1043 718 0
700 1043 -718 0
-700 -1044 719 0
700 1044 -719 0
-700 -1045 720 0
700 1045 -720 0
-700 -1046 721 0
700 1046 -721 0
-700 -1047 722 0
700 1047 -722 0
-700 -1048 723 0
700 1048 -723 0
-700 -1049 724 0
700 1049 -724 0
-700 -1050 725 0
700 1050 -725 0
-700 -1051 726 0
700 1051 -726 0
-700 -1052 727 0
700 1052 -727 0
-700 -1053 728 0
700 1053 -728 0
-701 -1054 702 0
701 1054 -702 0
-701 -1055 703 0
701 1055 -703 0
-701 -1056 704 0
701 1056 -704 0
-701 -1057 705 0
701 1057 -705 0
-701 -1058 706 0
701 1058 -706 0
-701 -1059 707 0
701 1059 -707 0
-701 -1060 708 0
701 1060 -708 0
-701 -1061 709 0
701 1061 -709 0
-701 -1062 710 0
701 1062 -710 0
-701 -1063 711 0
701 1063 -711 0
-701 -1064 712 0
701 1064 -712 0
-701 -1065 713 0
701 1065 -713 0
-701 -1066 714 0
701 1066 -714 0
-701 -1067 715 0
701 1067 -715 0
-701 -1068 716 0
701 1068 -716 0
-701 -1069 717 0
701 1069 -717 0
-701 -1070 718 0
701 1070 -718 0
-701 -1071 719 0
701 1071 -719 0
-701 -1072 720 0
701 1072 -720 0
-701 -1073 721 0
701 1073 -721 0
-701 -1074 722 0
701 1074 -722 0
-701 -1075 723 0
701 1075 -723 0
-701 -1076 724 0
701 1076 -724 0
-701 -1077 725 0
701 1077 -725 0
-701 -1078 726 0
701 1078 -726 0
-701 -1079 727 0
701 1079 -727 0
-701 -1080 728 0
701 1080 -728 0
-702 -1081 703 0
702 1081 -703 0
-702 -1082 704 0
702 1082 -704 0
-702 -1083 705 0
702 1083 -705 0
-702 -1084 706 0
702 1084 -706 0
-702 -1085 707 0
702 1085 -707 0
-702 -1086 708 0
702 1086 -708 0
-702 -1087 709 0
702 1087 -709 0
-702 -1088 710 0
702 1088 -710 0
-702 -1089 711 0
702 1089 -711 0
-702 -1090 712 0
702 1090 -712 0
-702 -1091 713 0
702 1091 -713 0
-702 -1092 714 0
702 1092 -714 0
-702 -1093 715 0
702 1093 -715 0
-702 -1094 716 0
702 1094 -716 0
-702 -1095 717 0
702 1095 -717 0
-702 -1096 718 0
702 1096 -718 0
-702 -1097 719 0
702 1097 -719 0
-702 -1098 720 0
702 1098 -720 0
-702 -1099 721 0
702 1099 -721 0
-702 -1100 722 0
702 1100 -722 0
-702 -1101 723 0
702 1101 -723 0
-702 -1102 724 0
702 1102 -724 0
-702 -1103 725 0
702 1103 -725 0
-702 -1104 726 0
702 1104 -726 0
-702 -1105 727 0
702 1105 -727 0
-702 -1106 728 0
702 1106 -728 0
-703 -1107 704 0
703 1107 -704 0
-703 -1108 705 0
703 1108 -705 0
-703 -1109 706 0
703 1109 -706 0
-703 -1110 707 0
703 1110 -707 0
-703 -1111 708 0
703 1111 -708 0
-703 -1112 709 0
703 1112 -709 0
-703 -1113 710 0
703 1113 -710 0
-703 -1114 711 0
703 1114 -711 0
-703 -1115 712 0
703 1115 -712 0
-703 -1116 713 0
703 1116 -713 0
-703 -1117 714 0
703 1117 -714 0
-703 -1118 715 0
703 1118 -715 0
-703 -1119 716 0
703 1119 -716 0
-703 -1120 717 0
703 1120 -717 0
-703 -1121 718 0
703 1121 -718 0
-703 -1122 719 0
703 1122 -719 0
-703 -1123 720 0
703 1123 -720 0
-703 -1124 721 0
703 1124 -721 0
-703 -1125 722 0
703 1125 -722 0
-703 -1126 723 0
703 1126 -723 0
-703 -1127 724 0
703 1127 -724 0
-703 -1128 725 0
703 1128 -725 0
-703 -1129 726 0
703 1129 -726 0
-703 -1130 727 0
703 1130 -727 0
-703 -1131 728 0
703 1131 -728 0
-704 -1132 705 0
704 1132 -705 0
-704 -1133 706 0
704 1133 -706 0
-704 -1134 707 0
704 1134 -707 0
-704 -1135 708 0
704 1135 -708 0
-704 -1136 709 0
704 1136 -709 0
-704 -1137 710 0
704 1137 -710 0
-704 -1138 711 0
704 1138 -711 0
-704 -1139 712 0
704 1139 -712 0
-704 -1140 713 0
704 1140 -713 0
-704 -1141 714 0
704 1141 -714 0
-704 -1142 715 0
704 1142 -715 0
-704 -1143 716 0
704 1143 -716 0
-704 -1144 717 0
704 1144 -717 0
-704 -1145 718 0
704 1145 -718 0
-704 -1146 719 0
704 1146 -719 0
-704 -1147 720 0
704 1147 -720 0
-704 -1148 721 0
704 1148 -721 0
-704 -1149 722 0
704 1149 -722 0
-704 -1150 723 0
704 1150 -723 0
-704 -1151 724 0
704 1151 -724 0
-704 -1152 725 0
704 1152 -725 0
-704 -1153 726 0
704 1153 -726 0
-704 -1154 727 0
704 1154 -727 0
-704 -1155 728 0
704 1155 -728 0
-705 -1156 706 0
705 1156 -706 0
-705 -1157 707 0
705 1157 -707 0
-705 -1158 708 0
705 1158 -708 0
-705 -1159 709 0
705 1159 -709 0
-705 -1160 710 0
705 1160 -710 0
-705 -1161 711 0
705 1161 -711 0
-705 -1162 712 0
705 1162 -712 0
-705 -1163 713 0
705 1163 -713 0
-705 -1164 714 0
705 1164 -714 0
-705 -1165 715 0
705 1165 -715 0
-705 -1166 716 0
705 1166 -716 0
-705 -1167 717 0
705 1167 -717 0
-705 -1168 718 0
705 1168 -718 0
-705 -1169 719 0
705 1169 -719 0
-705 -1170 720 0
705 1170 -720 0
-705 -1171 721 0
705 1171 -721 0
-705 -1172 722 0
705 1172 -722 0
-705 -1173 723 0
705 1173 -723 0
-705 -1174 724 0
705 1174 -724 0
-705 -1175 725 0
705 1175 -725 0
-705 -1176 726 0
705 1176 -726 0
-705 -1177 727 0
705 1177 -727 0
-705 -1178 728 0
705 1178 -728 0
-706 -1179 707 0
706 1179 -707 0
-706 -1180 708 0
706 1180 -708 0
-706 -1181 709 0
706 1181 -709 0
-706 -1182 710 0
706 1182 -710 0
-706 -1183 711 0
706 1183 -711 0
-706 -1184 712 0
706 1184 -712 0
-706 -1185 713 0
706 1185 -713 0
-706 -1186 714 0
706 1186 -714 0
-706 -1187 715 0
706 1187 -715 0
-706 -1188 716 0
706 1188 -716 0
-706 -1189 717 0
706 1189 -717 0
-706 -1190 718 0
706 1190 -718 0
-706 -1191 719 0
706 1191 -719 0
-706 -1192 720 0
706 1192 -720 0
-706 -1193 721 0
706 1193 -721 0
-706 -1194 722 0
706 1194 -722 0
-706 -1195 723 0
706 1195 -723 0
-706 -1196 724 0
706 1196 -724 0
-706 -1197 725 0
706 1197 -725 0
-706 -1198 726 0
706 1198 -726 0
-706 -1199 727 0
706 1199 -727 0
-706 -1200 728 0
706 1200 -728 0
-707 -1201 708 0
707 1201 -708 0
-707 -1202 709 0
707 1202 -709 0
-707 -1203 710 0
707 1203 -710 0
-707 -1204 711 0
707 1204 -711 0
-707 -1205 712 0
707 1205 -712 0
-707 -1206 713 0
707 1206 -713 0
-707 -1207 714 0
707 1207 -714 0
-707 -1208 715 0
707 1208 -715 0
-707 -1209 716 0
707 1209 -716 0
-707 -1210 717 0
707 1210 -717 0
-707 -1211 718 0
707 1211 -718 0
-707 -1212 719 0
707 1212 -719 0
-707 -1213 720 0
707 1213 -720 0
-707 -1214 721 0
707 1214 -721 0
-707 -1215 722 0
707 1215 -722 0
-707 -1216 723 0
707 1216 -723 0
-707 -1217 724 0
707 1217 -724 0
-707 -1218 725 0
707 1218 -725 0
-707 -1219 726 0
707 1219 -726 0
-707 -1220 727 0
707 1220 -727 0
-707 -1221 728 0
707 1221 -728 0
-708 -1222 709 0
708 1222 -709 0
-708 -1223 710 0
708 1223 -710 0
-708 -1224 711 0
708 1224 -711 0
-708 -1225 712 0
708 1225 -712 0
-708 -1226 713 0
708 1226 -713 0
-708 -1227 714 0
708 1227 -714 0
-708 -1228 715 0
708 1228 -715 0
-708 -1229 716 0
708 1229 -716 0
-708 -1230 717 0
708 1230 -717 0
-708 -1231 718 0
708 1231 -718 0
-708 -1232 719 0
708 1232 -719 0
-708 -1233 720 0
708 1233 -720 0
-708 -1234 721 0
708 1234 -721 0
-708 -1235 722 0
708 1235 -722 0
-708 -1236 723 0
708 1236 -723 0
-708 -1237 724 0
708 1237 -724 0
-708 -1238 725 0
708 1238 -725 0
-708 -1239 726 0
708 1239 -726 0
-708 -1240 727 0
708 1240 -727 0
-708 -1241 728 0
708 1241 -728 0
-709 -1242 710 0
709 1242 -710 0
-709 -1243 711 0
709 1243 -711 0
-709 -1244 712 0
709 1244 -712 0
-709 -1245 713 0
709 1245 -713 0
-709 -1246 714 0
709 1246 -714 0
-709 -1247 715 0
709 1247 -715 0
-709 -1248 716 0
709 1248 -716 0
-709 -1249 717 0
709 1249 -717 0
-709 -1250 718 0
709 1250 -718 0
-709 -1251 719 0
709 1251 -719 0
-709 -1252 720 0
709 1252 -720 0
-709 -1253 721 0
709 1253 -721 0
-709 -1254 722 0
709 1254 -722 0
-709 -1255 723 0
709 1255 -723 0
-709 -1256 724 0
709 1256 -724 0
-709 -1257 725 0
709 1257 -725 0
-709 -1258 726 0
709 1258 -726 0
-709 -1259 727 0
709 1259 -727 0
-709 -1260 728 0
709 1260 -728 0
-710 -1261 711 0
710 1261 -711 0
-710 -1262 712 0
710 1262 -712 0
-710 -1263 713 0
710 1263 -713 0
-710 -1264 714 0
710 1264 -714 0
-710 -1265 715 0
710 1265 -715 0
-710 -1266 716 0
710 1266 -716 0
-710 -1267 717 0
710 1267 -717 0
-710 -1268 718 0
710 1268 -718 0
-710 -1269 719 0
710 1269 -719 0
-710 -1270 720 0
710 1270 -720 0
-710 -1271 721 0
710 1271 -721 0
-710 -1272 722 0
710 1272 -722 0
-710 -1273 723 0
710 1273 -723 0
-710 -1274 724 0
710 1274 -724 0
-710 -1275 725 0
710 1275 -725 0
-710 -1276 726 0
710 1276 -726 0
-710 -1277 727 0
710 1277 -727 0
-710 -1278 728 0
710 1278 -728 0
-711 -1279 712 0
711 1279 -712 0
-711 -1280 713 0
711 1280 -713 0
-711 -1281 714 0
711 1281 -714 0
-711 -1282 715 0
711 1282 -715 0
-711 -1283 716 0
711 1283 -716 0
-711 -1284 717 0
711 1284 -717 0
-711 -1285 718 0
711 1285 -718 0
-711 -1286 719 0
711 1286 -719 0
-711 -1287 720 0
711 1287 -720 0
-711 -1288 721 0
711 1288 -721 0
-711 -1289 722 0
711 1289 -722 0
-711 -1290 723 0
711 1290 -723 0
-711 -1291 724 0
711 1291 -724 0
-711 -1292 725 0
711 1292 -725 0
-711 -1293 726 0
711 1293 -726 0
-711 -1294 727 0
711 1294 -727 0
-711 -1295 728 0
711 1295 -728 0
-712 -1296 713 0
712 1296 -713 0
-712 -1297 714 0
712 1297 -714 0
-712 -1298 715 0
712 1298 -715 0
-712 -1299 716 0
712 1299 -716 0
-712 -1300 717 0
712 1300 -717 0
-712 -1301 718 0
712 1301 -718 0
-712 -1302 719 0
712 1302 -719 0
-712 -1303 720 0
712 1303 -720 0
-712 -1304 721 0
712 1304 -721 0
-712 -1305 722 0
712 1305 -722 0
-712 -1306 723 0
712 1306 -723 0
-712 -1307 724 0
712 1307 -724 0
-712 -1308 725 0
712 1308 -725 0
-712 -1309 726 0
712 1309 -726 0
-712 -1310 727 0
712 1310 -727 0
-712 -1311 728 0
712 1311 -728 0
-713 -1312 714 0
713 1312 -714 0
-713 -1313 715 0
713 1313 -715 0
-713 -1314 716 0
713 1314 -716 0
-713 -1315 717 0
713 1315 -717 0
-713 -1316 718 0
713 1316 -718 0
-713 -1317 719 0
713 1317 -719 0
-713 -1318 720 0
713 1318 -720 0
-713 -1319 721 0
713 1319 -721 0
-713 -1320 722 0
713 1320 -722 0
-713 -1321 723 0
713 1321 -723 0
-713 -1322 724 0
713 1322 -724 0
-713 -1323 725 0
713 1323 -725 0
-713 -1324 726 0
713 1324 -726 0
-713 -1325 727 0
713 1325 -727 0
-713 -1326 728 0
713 1326 -728 0
-714 -1327 715 0
714 1327 -715 0
-714 -1328 716 0
714 1328 -716 0
-714 -1329 717 0
714 1329 -717 0
-714 -1330 718 0
714 1330 -718 0
-714 -1331 719 0
714 1331 -719 0
-714 -1332 720 0
714 1332 -720 0
-714 -1333 721 0
714 1333 -721 0
-714 -1334 722 0
714 1334 -722 0
-714 -1335 723 0
714 1335 -723 0
-714 -1336 724 0
714 1336 -724 0
-714 -1337 725 0
714 1337 -725 0
-714 -1338 726 0
714 1338 -726 0
-714 -1339 727 0
714 1339 -727 0
-714 -1340 728 0
714 1340 -728 0
-715 -1341 716 0
715 1341 -716 0
-715 -1342 717 0
715 1342 -717 0
-715 -1343 718 0
715 1343 -718 0
-715 -1344 719 0
715 1344 -719 0
-715 -1345 720 0
715 1345 -720 0
-715 -1346 721 0
715 1346 -721 0
-715 -1347 722 0
715 1347 -722 0
-715 -1348 723 0
715 1348 -723 0
-715 -1349 724 0
715 1349 -724 0
-715 -1350 725 0
715 1350 -725 0
-715 -1351 726 0
715 1351 -726 0
-715 -1352 727 0
715 1352 -727 0
-715 -1353 728 0
715 1353 -728 0
-716 -1354 717 0
716 1354 -717 0
-716 -1355 718 0
716 1355 -718 0
-716 -1356 719 0
716 1356 -719 0
-716 -1357 720 0
716 1357 -720 0
-716 -1358 721 0
716 1358 -721 0
-716 -1359 722 0
716 1359 -722 0
-716 -1360 723 0
716 1360 -723 0
-716 -1361 724 0
716 1361 -724 0
-716 -1362 725 0
716 1362 -725 0
-716 -1363 726 0
716 1363 -726 0
-716 -1364 727 0
716 1364 -727 0
-716 -1365 728 0
716 1365 -728 0
-717 -1366 718 0
717 1366 -718 0
-717 -1367 719 0
717 1367 -719 0
-717 -1368 720 0
717 1368 -720 0
-717 -1369 721 0
717 1369 -721 0
-717 -1370 722 0
717 1370 -722 0
-717 -1371 723 0
717 1371 -723 0
-717 -1372 724 0
717 1372 -724 0
-717 -1373 725 0
717 1373 -725 0
-717 -1374 726 0
717 1374 -726 0
-717 -1375 727 0
717 1375 -727 0
-717 -1376 728 0
717 1376 -728 0
-718 -1377 719 0
718 1377 -719 0
-718 -1378 720 0
718 1378 -720 0
-718 -1379 721 0
718 1379 -721 0
-718 -1380 722 0
718 1380 -722 0
-718 -1381 723 0
718 1381 -723 0
-718 -1382 724 0
718 1382 -724 0
-718 -1383 725 0
718 1383 -725 0
-718 -1384 726 0
718 1384 -726 0
-718 -1385 727 0
718 1385 -727 0
-718 -1386 728 0
718 1386 -728 0
-719 -1387 720 0
719 1387 -720 0
-719 -1388 721 0
719 1388 -721 0
-719 -1389 722 0
719 1389 -722 0
-719 -1390 723 0
719 1390 -723 0
-719 -1391 724 0
719 1391 -724 0
-719 -1392 725 0
719 1392 -725 0
-719 -1393 726 0
719 1393 -726 0
-719 -1394 727 0
719 1394 -727 0
-719 -1395 728 0
719 1395 -728 0
-720 -1396 721 0
720 1396 -721 0
-720 -1397 722 0
720 1397 -722 0
-720 -1398 723 0
720 1398 -723 0
-720 -1399 724 0
720 1399 -724 0
-720 -1400 725 0
720 1400 -725 0
-720 -1401 726 0
720 1401 -726 0
-720 -1402 727 0
720 1402 -727 0
-720 -1403 728 0
720 1403 -728 0
-721 -1404 722 0
721 1404 -722 0
-721 -1405 723 0
721 1405 -723 0
-721 -1406 724 0
721 1406 -724 0
-721 -1407 725 0
721 1407 -725 0
-721 -1408 726 0
721 1408 -726 0
-721 -1409 727 0
721 1409 -727 0
-721 -1410 728 0
721 1410 -728 0
-722 -1411 723 0
722 1411 -723 0
-722 -1412 724 0
722 1412 -724 0
-722 -1413 725 0
722 1413 -725 0
-722 -1414 726 0
722 1414 -726 0
-722 -1415 727 0
722 1415 -727 0
-722 -1416 728 0
722 1416 -728 0
-723 -1417 724 0
723 1417 -724 0
-723 -1418 725 0
723 1418 -725 0
-723 -1419 726 0
723 1419 -726 0
-723 -1420 727 0
723 1420 -727 0
-723 -1421 728 0
723 1421 -728 0
-724 -1422 725 0
724 1422 -725 0
-724 -1423 726 0
724 1423 -726 0
-724 -1424 727 0
724 1424 -727 0
-724 -1425 728 0
724 1425 -728 0
-725 -1426 726 0
725 1426 -726 0
-725 -1427 727 0
725 1427 -727 0
-725 -1428 728 0
725 1428 -728 0
-726 -1429 727 0
726 1429 -727 0
-726 -1430 728 0
726 1430 -728 0
-727 -1431 728 0
727 1431 -728 0
-729 -766 730 0
729 766 -730 0
-729 -767 731 0
729 767 -731 0
-729 -768 732 0
729 768 -732 0
-729 -769 733 0
729 769 -733 0
-729 -770 734 0
729 770 -734 0
-729 -771 735 0
729 771 -735 0
-729 -772 736 0
729 772 -736 0
-729 -773 737 0
729 773 -737 0
-729 -774 738 0
729 774 -738 0
-729 -775 739 0
729 775 -739 0
-729 -776 740 0
729 776 -740 0
-729 -777 741 0
729 777 -741 0
-729 -778 742 0
729 778 -742 0
-729 -779 743 0
729 779 -743 0
-729 -780 744 0
729 780 -744 0
-729 -781 745 0
729 781 -745 0
-729 -782 746 0
729 782 -746 0
-729 -783 747 0
729 783 -747 0
-729 -784 748 0
729 784 -748 0
-729 -785 749 0
729 785 -749 0
-729 -786 750 0
729 786 -750 0
-729 -787 751 0
729 787 -751 0
-729 -788 752 0
729 788 -752 0
-729 -789 753 0
729 789 -753 0
-729 -790 754 0
729 790 -754 0
-729 -791 755 0
729 791 -755 0
-729 -792 756 0
729 792 -756 0
-729 -793 757 0
729 793 -757 0
-729 -794 758 0
729 794 -758 0
-729 -795 759 0
729 795 -759 0
-729 -796 760 0
729 796 -760 0
-729 -797 761 0
729 797 -761 0
-729 -798 762 0
729 798 -762 0
-729 -799 763 0
729 799 -763 0
-729 -800 764 0
729 800 -764 0
-729 -801 765 0
729 801 -765 0
-730 -802 731 0
730 802 -731 0
-730 -803 732 0
730 803 -732 0
-730 -804 733 0
730 804 -733 0
-730 -805 734 0
730 805 -734 0
-730 -806 735 0
730 806 -735 0
-730 -807 736 0
730 807 -736 0
-730 -808 737 0
730 808 -737 0
-730 -809 738 0
730 809 -738 0
-730 -810 739 0
730 810 -739 0
-730 -811 740 0
730 811 -740 0
-730 -812 741 0
730 812 -741 0
-730 -813 742 0
730 813 -742 0
-730 -814 743 0
730 814 -743 0
-730 -815 744 0
730 815 -744 0
-730 -816 745 0
730 816 -745 0
-730 -817 746 0
730 817 -746 0
-730 -818 747 0
730 818 -747 0
-730 -819 748 0
730 819 -748 0
-730 -820 749 0
730 820 -749 0
-730 -821 750 0
730 821 -750 0
-730 -822 751 0
730 822 -751 0
-730 -823 752 0
730 823 -752 0
-730 -824 753 0
730 824 -753 0
-730 -825 754 0
730 825 -754 0
-730 -826 755 0
730 826 -755 0
-730 -827 756 0
730 827 -756 0
-730 -828 757 0
730 828 -757 0
-730 -829 758 0
730 829 -758 0
-730 -830 759 0
730 830 -759 0
-730 -831 760 0
730 831 -760 0
-730 -832 761 0
730 832 -761 0
-730 -833 762 0
730 833 -762 0
-730 -834 763 0
730 834 -763 0
-730 -835 764 0
730 835 -764 0
-730 -836 765 0
730 836 -765 0
-731 -837 732 0
731 837 -732 0
-731 -838 733 0
731 838 -733 0
-731 -839 734 0
731 839 -734 0
-731 -840 735 0
731 840 -735 0
-731 -841 736 0
731 841 -736 0
-731 -842 737 0
731 842 -737 0
-731 -843 738 0
731 843 -738 0
-731 -844 739 0
731 844 -739 0
-731 -845 740 0
731 845 -740 0
-731 -846 741 0
731 846 -741 0
-731 -847 742 0
731 847 -742 0
-731 -848 743 0
731 848 -743 0
-731 -849 744 0
731 849 -744 0
-731 -850 745 0
731 850 -745 0
-731 -851 746 0
731 851 -746 0
-731 -852 747 0
731 852 -747 0
-731 -853 748 0
731 853 -748 0
-731 -854 749 0
731 854 -749 0
-731 -855 750 0
731 855 -750 0
-731 -856 751 0
731 856 -751 0
-731 -857 752 0
731 857 -752 0
-731 -858 753 0
731 858 -753 0
-731 -859 754 0
731 859 -754 0
-731 -860 755 0
731 860 -755 0
-731 -861 756 0
731 861 -756 0
-731 -862 757 0
731 862 -757 0
-731 -863 758 0
731 863 -758 0
-731 -864 759 0
731 864 -759 0
-731 -865 760 0
731 865 -760 0
-731 -866 761 0
731 866 -761 0
-731 -867 762 0
731 867 -762 0
-731 -868 763 0
731 868 -763 0
-731 -869 764 0
731 869 -764 0
-731 -870 765 0
731 870 -765 0
-732 -871 733 0
732 871 -733 0
-732 -872 734 0
732 872 -734 0
-732 -873 735 0
732 873 -735 0
-732 -874 736 0
732 874 -736 0
-732 -875 737 0
732 875 -737 0
-732 -876 738 0
732 876 -738 0
-732 -877 739 0
732 877 -739 0
-732 -878 740 0
732 878 -740 0
-732 -879 741 0
732 879 -741 0
-732 -880 742 0
732 880 -742 0
-732 -881 743 0
732 881 -743 0
-732 -882 744 0
732 882 -744 0
-732 -883 745 0
732 883 -745 0
-732 -884 746 0
732 884 -746 0
-732 -885 747 0
732 885 -747 0
-732 -886 748 0
732 886 -748 0
-732 -887 749 0
732 887 -749 0
-732 -888 750 0
732 888 -750 0
-732 -889 751 0
732 889 -751 0
-732 -890 752 0
732 890 -752 0
-732 -891 753 0
732 891 -753 0
-732 -892 754 0
732 892 -754 0
-732 -893 755 0
732 893 -755 0
-732 -894 756 0
732 894 -756 0
-732 -895 757 0
732 895 -757 0
-732 -896 758 0
732 896 -758 0
-732 -897 759 0
732 897 -759 0
-732 -898 760 0
732 898 -760 0
-732 -899 761 0
732 899 -761 0
-732 -900 762 0
732 900 -762 0
-732 -901 763 0
732 901 -763 0
-732 -902 764 0
732 902 -764 0
-732 -903 765 0
732 903 -765 0
-733 -904 734 0
733 904 -734 0
-733 -905 735 0
733 905 -735 0
-733 -906 736 0
733 906 -736 0
-733 -907 737 0
733 907 -737 0
-733 -908 738 0
733 908 -738 0
-733 -909 739 0
733 909 -739 0
-733 -910 740 0
733 910 -740 0
-733 -911 741 0
733 911 -741 0
-733 -912 742 0
733 912 -742 0
-733 -913 743 0
733 913 -743 0
-733 -914 744 0
733 914 -744 0
-733 -915 745 0
733 915 -745 0
-733 -916 746 0
733 916 -746 0
-733 -917 747 0
733 917 -747 0
-733 -918 748 0
733 918 -748 0
-733 -919 749 0
733 919 -749 0
-733 -920 750 0
733 920 -750 0
-733 -921 751 0
733 921 -751 0
-733 -922 752 0
733 922 -752 0
-733 -923 753 0
733 923 -753 0
-733 -924 754 0
733 924 -754 0
-733 -925 755 0
733 925 -755 0
-733 -926 756 0
733 926 -756 0
-733 -927 757 0
733 927 -757 0
-733 -928 758 0
733 928 -758 0
-733 -929 759 0
733 929 -759 0
-733 -930 760 0
733 930 -760 0
-733 -931 761 0
733 931 -761 0
-733 -932 762 0
733 932 -762 0
-733 -933 763 0
733 933 -763 0
-733 -934 764 0
733 934 -764 0
-733 -935 765 0
733 935 -765 0
-734 -936 735 0
734 936 -735 0
-734 -937 736 0
734 937 -736 0
-734 -938 737 0
734 938 -737 0
-734 -939 738 0
734 939 -738 0
-734 -940 739 0
734 940 -739 0
-734 -941 740 0
734 941 -740 0
-734 -942 741 0
734 942 -741 0
-734 -943 742 0
734 943 -742 0
-734 -944 743 0
734 944 -743 0
-734 -945 744 0
734 945 -744 0
-734 -946 745 0
734 946 -745 0
-734 -947 746 0
734 947 -746 0
-734 -948 747 0
734 948 -747 0
-734 -949 748 0
734 949 -748 0
-734 -950 749 0
734 950 -749 0
-734 -951 750 0
734 951 -750 0
-734 -952 751 0
734 952 -751 0
-734 -953 752 0
734 953 -752 0
-734 -954 753 0
734 954 -753 0
-734 -955 754 0
734 955 -754 0
-734 -956 755 0
734 956 -755 0
-734 -957 756 0
734 957 -756 0
-734 -958 757 0
734 958 -757 0
-734 -959 758 0
734 959 -758 0
-734 -960 759 0
734 960 -759 0
-734 -961 760 0
734 961 -760 0
-734 -962 761 0
734 962 -761 0
-734 -963 762 0
734 963 -762 0
-734 -964 763 0
734 964 -763 0
-734 -965 764 0
734 965 -764 0
-734 -966 765 0
734 966 -765 0
-735 -967 736 0
735 967 -736 0
-735 -968 737 0
735 968 -737 0
-735 -969 738 0
735 969 -738 0
-735 -970 739 0
735 970 -739 0
-735 -971 740 0
735 971 -740 0
-735 -972 741 0
735 972 -741 0
-735 -973 742 0
735 973 -742 0
-735 -974 743 0
735 974 -743 0
-735 -975 744 0
735 975 -744 0
-735 -976 745 0
735 976 -745 0
-735 -977 746 0
735 977 -746 0
-735 -978 747 0
735 978 -747 0
-735 -979 748 0
735 979 -748 0
-735 -980 749 0
735 980 -749 0
-735 -981 750 0
735 981 -750 0
-735 -982 751 0
735 982 -751 0
-735 -983 752 0
735 983 -752 0
-735 -984 753 0
735 984 -753 0
-735 -985 754 0
735 985 -754 0
-735 -986 755 0
735 986 -755 0
-735 -987 756 0
735 987 -756 0
-735 -988 757 0
735 988 -757 0
-735 -989 758 0
735 989 -758 0
-735 -990 759 0
735 990 -759 0
-735 -991 760 0
735 991 -760 0
-735 -992 761 0
735 992 -761 0
-735 -993 762 0
735 993 -762 0
-735 -994 763 0
735 994 -763 0
-735 -995 764 0
735 995 -764 0
-735 -996 765 0
735 996 -765 0
-736 -997 737 0
736 997 -737 0
-736 -998 738 0
736 998 -738 0
-736 -999 739 0
736 999 -739 0
-736 -1000 740 0
736 1000 -740 0
-736 -1001 741 0
736 1001 -741 0
-736 -1002 742 0
736 1002 -742 0
-736 -1003 743 0
736 1003 -743 0
-736 -1004 744 0
736 1004 -744 0
-736 -1005 745 0
736 1005 -745 0
-736 -1006 746 0
736 1006 -746 0
-736 -1007 747 0
736 1007 -747 0
-736 -1008 748 0
736 1008 -748 0
-736 -1009 749 0
736 1009 -749 0
-736 -1010 750 0
736 1010 -750 0
-736 -1011 751 0
736 1011 -751 0
-736 -1012 752 0
736 1012 -752 0
-736 -1013 753 0
736 1013 -753 0
-736 -1014 754 0
736 1014 -754 0
-736 -1015 755 0
736 1015 -755 0
-736 -1016 756 0
736 1016 -756 0
-736 -1017 757 0
736 1017 -757 0
-736 -1018 758 0
736 1018 -758 0
-736 -1019 759 0
736 1019 -759 0
-736 -1020 760 0
736 1020 -760 0
-736 -1021 761 0
736 1021 -761 0
-736 -1022 762 0
736 1022 -762 0
-736 -1023 763 0
736 1023 -763 0
-736 -1024 764 0
736 1024 -764 0
-736 -1025 765 0
736 1025 -765 0
-737 -1026 738 0
737 1026 -738 0
-737 -1027 739 0
737 1027 -739 0
-737 -1028 740 0
737 1028 -740 0
-737 -1029 741 0
737 1029 -741 0
-737 -1030 742 0
737 1030 -742 0
-737 -1031 743 0
737 1031 -743 0
-737 -1032 744 0
737 1032 -744 0
-737 -1033 745 0
737 1033 -745 0
-737 -1034 746 0
737 1034 -746 0
-737 -1035 747 0
737 1035 -747 0
-737 -1036 748 0
737 1036 -748 0
-737 -1037 749 0
737 1037 -749 0
-737 -1038 750 0
737 1038 -750 0
-737 -1039 751 0
737 1039 -751 0
-737 -1040 752 0
737 1040 -752 0
-737 -1041 753 0
737 1041 -753 0
-737 -1042 754 0
737 1042 -754 0
-737 -1043 755 0
737 1043 -755 0
-737 -1044 756 0
737 1044 -756 0
-737 -1045 757 0
737 1045 -757 0
-737 -1046 758 0
737 1046 -758 0
-737 -1047 759 0
737 1047 -759 0
-737 -1048 760 0
737 1048 -760 0
-737 -1049 761 0
737 1049 -761 0
-737 -1050 762 0
737 1050 -762 0
-737 -1051 763 0
737 1051 -763 0
-737 -1052 764 0
737 1052 -764 0
-737 -1053 765 0
737 1053 -765 0
-738 -1054 739 0
738 1054 -739 0
-738 -1055 740 0
738 1055 -740 0
-738 -1056 741 0
738 1056 -741 0
-738 -1057 742 0
738 1057 -742 0
-738 -1058 743 0
738 1058 -743 0
-738 -1059 744 0
738 1059 -744 0
-738 -1060 745 0
738 1060 -745 0
-738 -1061 746 0
738 1061 -746 0
-738 -1062 747 0
738 1062 -747 0
-738 -1063 748 0
738 1063 -748 0
-738 -1064 749 0
738 1064 -749 0
-738 -1065 750 0
738 1065 -750 0
-738 -1066 751 0
738 1066 -751 0
-738 -1067 752 0
738 1067 -752 0
-738 -1068 753 0
738 1068 -753 0
-738 -1069 754 0
738 1069 -754 0
-738 -1070 755 0
738 1070 -755 0
-738 -1071 756 0
738 1071 -756 0
-738 -1072 757 0
738 1072 -757 0
-738 -1073 758 0
738 1073 -758 0
-738 -1074 759 0
738 1074 -759 0
-738 -1075 760 0
738 1075 -760 0
-738 -1076 761 0
738 1076 -761 0
-738 -1077 762 0
738 1077 -762 0
-738 -1078 763 0
738 1078 -763 0
-738 -1079 764 0
738 1079 -764 0
-738 -1080 765 0
738 1080 -765 0
-739 -1081 740 0
739 1081 -740 0
-739 -1082 741 0
739 1082 -741 0
-739 -1083 742 0
739 1083 -742 0
-739 -1084 743 0
739 1084 -743 0
-739 -1085 744 0
739 1085 -744 0
-739 -1086 745 0
739 1086 -745 0
-739 -1087 746 0
739 1087 -746 0
-739 -1088 747 0
739 1088 -747 0
-739 -1089 748 0
739 1089 -748 0
-739 -1090 749 0
739 1090 -749 0
-739 -1091 750 0
739 1091 -750 0
-739 -1092 751 0
739 1092 -751 0
-739 -1093 752 0
739 1093 -752 0
-739 -1094 753 0
739 1094 -753 0
-739 -1095 754 0
739 1095 -754 0
-739 -1096 755 0
739 1096 -755 0
-739 -1097 756 0
739 1097 -756 0
-739 -1098 757 0
739 1098 -757 0
-739 -1099 758 0
739 1099 -758 0
-739 -1100 759 0
739 1100 -759 0
-739 -1101 760 0
739 1101 -760 0
-739 -1102 761 0
739 1102 -761 0
-739 -1103 762 0
739 1103 -762 0
-739 -1104 763 0
739 1104 -763 0
-739 -1105 764 0
739 1105 -764 0
-739 -1106 765 0
739 1106 -765 0
-740 -1107 741 0
740 1107 -741 0
-740 -1108 742 0
740 1108 -742 0
-740 -1109 743 0
740 1109 -743 0
-740 -1110 744 0
740 1110 -744 0
-740 -1111 745 0
740 1111 -745 0
-740 -1112 746 0
740 1112 -746 0
-740 -1113 747 0
740 1113 -747 0
-740 -1114 748 0
740 1114 -748 0
-740 -1115 749 0
740 1115 -749 0
-740 -1116 750 0
740 1116 -750 0
-740 -1117 751 0
740 1117 -751 0
-740 -1118 752 0
740 1118 -752 0
-740 -1119 753 0
740 1119 -753 0
-740 -1120 754 0
740 1120 -754 0
-740 -1121 755 0
740 1121 -755 0
-740 -1122 756 0
740 1122 -756 0
-740 -1123 757 0
740 1123 -757 0
-740 -1124 758 0
740 1124 -758 0
-740 -1125 759 0
740 1125 -759 0
-740 -1126 760 0
740 1126 -760 0
-740 -1127 761 0
740 1127 -761 0
-740 -1128 762 0
740 1128 -762 0
-740 -1129 763 0
740 1129 -763 0
-740 -1130 764 0
740 1130 -764 0
-740 -1131 765 0
740 1131 -765 0
-741 -1132 742 0
741 1132 -742 0
-741 -1133 743 0
741 1133 -743 0
-741 -1134 744 0
741 1134 -744 0
-741 -1135 745 0
741 1135 -745 0
-741 -1136 746 0
741 1136 -746 0
-741 -1137 747 0
741 1137 -747 0
-741 -1138 748 0
741 1138 -748 0
-741 -1139 749 0
741 1139 -749 0
-741 -1140 750 0
741 1140 -750 0
-741 -1141 751 0
741 1141 -751 0
-741 -1142 752 0
741 1142 -752 0
-741 -1143 753 0
741 1143 -753 0
-741 -1144 754 0
741 1144 -754 0
-741 -1145 755 0
741 1145 -755 0
-741 -1146 756 0
741 1146 -756 0
-741 -1147 757 0
741 1147 -757 0
-741 -1148 758 0
741 1148 -758 0
-741 -1149 759 0
741 1149 -759 0
-741 -1150 760 0
741 1150 -760 0
-741 -1151 761 0
741 1151 -761 0
-741 -1152 762 0
741 1152 -762 0
-741 -1153 763 0
741 1153 -763 0
-741 -1154 764 0
741 1154 -764 0
-741 -1155 765 0
741 1155 -765 0
-742 -1156 743 0
742 1156 -743 0
-742 -1157 744 0
742 1157 -744 0
-742 -1158 745 0
742 1158 -745 0
-742 -1159 746 0
742 1159 -746 0
-742 -1160 747 0
742 1160 -747 0
-742 -1161 748 0
742 1161 -748 0
-742 -1162 749 0
742 1162 -749 0
-742 -1163 750 0
742 1163 -750 0
-742 -1164 751 0
742 1164 -751 0
-742 -1165 752 0
742 1165 -752 0
-742 -1166 753 0
742 1166 -753 0
-742 -1167 754 0
742 1167 -754 0
-742 -1168 755 0
742 1168 -755 0
-742 -1169 756 0
742 1169 -756 0
-742 -1170 757 0
742 1170 -757 0
-742 -1171 758 0
742 1171 -758 0
-742 -1172 759 0
742 1172 -759 0
-742 -1173 760 0
742 1173 -760 0
-742 -1174 761 0
742 1174 -761 0
-742 -1175 762 0
742 1175 -762 0
-742 -1176 763 0
742 1176 -763 0
-742 -1177 764 0
742 1177 -764 0
-742 -1178 765 0
742 1178 -765 0
-743 -1179 744 0
743 1179 -744 0
-743 -1180 745 0
743 1180 -745 0
-743 -1181 746 0
743 1181 -746 0
-743 -1182 747 0
743 1182 -747 0
-743 -1183 748 0
743 1183 -748 0
-743 -1184 749 0
743 1184 -749 0
-743 -1185 750 0
743 1185 -750 0
-743 -1186 751 0
743 1186 -751 0
-743 -1187 752 0
743 1187 -752 0
-743 -1188 753 0
743 1188 -753 0
-743 -1189 754 0
743 1189 -754 0
-743 -1190 755 0
743 1190 -755 0
-743 -1191 756 0
743 1191 -756 0
-743 -1192 757 0
743 1192 -757 0
-743 -1193 758 0
743 1193 -758 0
-743 -1194 759 0
743 1194 -759 0
-743 -1195 760 0
743 1195 -760 0
-743 -1196 761 0
743 1196 -761 0
-743 -1197 762 0
743 1197 -762 0
-743 -1198 763 0
743 1198 -763 0
-743 -1199 764 0
743 1199 -764 0
-743 -1200 765 0
743 1200 -765 0
-744 -1201 745 0
744 1201 -745 0
-744 -1202 746 0
744 1202 -746 0
-744 -1203 747 0
744 1203 -747 0
-744 -1204 748 0
744 1204 -748 0
-744 -1205 749 0
744 1205 -749 0
-744 -1206 750 0
744 1206 -750 0
-744 -1207 751 0
744 1207 -751 0
-744 -1208 752 0
744 1208 -752 0
-744 -1209 753 0
744 1209 -753 0
-744 -1210 754 0
744 1210 -754 0
-744 -1211 755 0
744 1211 -755 0
-744 -1212 756 0
744 1212 -756 0
-744 -1213 757 0
744 1213 -757 0
-744 -1214 758 0
744 1214 -758 0
-744 -1215 759 0
744 1215 -759 0
-744 -1216 760 0
744 1216 -760 0
-744 -1217 761 0
744 1217 -761 0
-744 -1218 762 0
744 1218 -762 0
-744 -1219 763 0
744 1219 -763 0
-744 -1220 764 0
744 1220 -764 0
-744 -1221 765 0
744 1221 -765 0
-745 -1222 746 0
745 1222 -746 0
-745 -1223 747 0
745 1223 -747 0
-745 -1224 748 0
745 1224 -748 0
-745 -1225 749 0
745 1225 -749 0
-745 -1226 750 0
745 1226 -750 0
-745 -1227 751 0
745 1227 -751 0
-745 -1228 752 0
745 1228 -752 0
-745 -1229 753 0
745 1229 -753 0
-745 -1230 754 0
745 1230 -754 0
-745 -1231 755 0
745 1231 -755 0
-745 -1232 756 0
745 1232 -756 0
-745 -1233 757 0
745 1233 -757 0
-745 -1234 758 0
745 1234 -758 0
-745 -1235 759 0
745 1235 -759 0
-745 -1236 760 0
745 1236 -760 0
-745 -1237 761 0
745 1237 -761 0
-745 -1238 762 0
745 1238 -762 0
-745 -1239 763 0
745 1239 -763 0
-745 -1240 764 0
745 1240 -764 0
-745 -1241 765 0
745 1241 -765 0
-746 -1242 747 0
746 1242 -747 0
-746 -1243 748 0
746 1243 -748 0
-746 -1244 749 0
746 1244 -749 0
-746 -1245 750 0
746 1245 -750 0
-746 -1246 751 0
746 1246 -751 0
-746 -1247 752 0
746 1247 -752 0
-746 -1248 753 0
746 1248 -753 0
-746 -1249 754 0
746 1249 -754 0
-746 -1250 755 0
746 1250 -755 0
-746 -1251 756 0
746 1251 -756 0
-746 -1252 757 0
746 1252 -757 0
-746 -1253 758 0
746 1253 -758 0
-746 -1254 759 0
746 1254 -759 0
-746 -1255 760 0
746 1255 -760 0
-746 -1256 761 0
746 1256 -761 0
-746 -1257 762 0
746 1257 -762 0
-746 -1258 763 0
746 1258 -763 0
-746 -1259 764 0
746 1259 -764 0
-746 -1260 765 0
746 1260 -765 0
-747 -1261 748 0
747 1261 -748 0
-747 -1262 749 0
747 1262 -749 0
-747 -1263 750 0
747 1263 -750 0
-747 -1264 751 0
747 1264 -751 0
-747 -1265 752 0
747 1265 -752 0
-747 -1266 753 0
747 1266 -753 0
-747 -1267 754 0
747 1267 -754 0
-747 -1268 755 0
747 1268 -755 0
-747 -1269 756 0
747 1269 -756 0
-747 -1270 757 0
747 1270 -757 0
-747 -1271 758 0
747 1271 -758 0
-747 -1272 759 0
747 1272 -759 0
-747 -1273 760 0
747 1273 -760 0
-747 -1274 761 0
747 1274 -761 0
-747 -1275 762 0
747 1275 -762 0
-747 -1276 763 0
747 1276 -763 0
-747 -1277 764 0
747 1277 -764 0
-747 -1278 765 0
747 1278 -765 0
-748 -1279 749 0
748 1279 -749 0
-748 -1280 750 0
748 1280 -750 0
-748 -1281 751 0
748 1281 -751 0
-748 -1282 752 0
748 1282 -752 0
-748 -1283 753 0
748 1283 -753 0
-748 -1284 754 0
748 1284 -754 0
-748 -1285 755 0
748 1285 -755 0
-748 -1286 756 0
748 1286 -756 0
-748 -1287 757 0
748 1287 -757 0
-748 -1288 758 0
748 1288 -758 0
-748 -1289 759 0
748 1289 -759 0
-748 -1290 760 0
748 1290 -760 0
-748 -1291 761 0
748 1291 -761 0
-748 -1292 762 0
748 1292 -762 0
-748 -1293 763 0
748 1293 -763 0
-748 -1294 764 0
748 1294 -764 0
-748 -1295 765 0
748 1295 -765 0
-749 -1296 750 0
749 1296 -750 0
-749 -1297 751 0
749 1297 -751 0
-749 -1298 752 0
749 1298 -752 0
-749 -1299 753 0
749 1299 -753 0
-749 -1300 754 0
749 1300 -754 0
-749 -1301 755 0
749 1301 -755 0
-749 -1302 756 0
749 1302 -756 0
-749 -1303 757 0
749 1303 -757 0
-749 -1304 758 0
749 1304 -758 0
-749 -1305 759 0
749 1305 -759 0
-749 -1306 760 0
749 1306 -760 0
-749 -1307 761 0
749 1307 -761 0
-749 -1308 762 0
749 1308 -762 0
-749 -1309 763 0
749 1309 -763 0
-749 -1310 764 0
749 1310 -764 0
-749 -1311 765 0
749 1311 -765 0
-750 -1312 751 0
750 1312 -751 0
-750 -1313 752 0
750 1313 -752 0
-750 -1314 753 0
750 1314 -753 0
-750 -1315 754 0
750 1315 -754 0
-750 -1316 755 0
750 1316 -755 0
-750 -1317 756 0
750 1317 -756 0
-750 -1318 757 0
750 1318 -757 0
-750 -1319 758 0
750 1319 -758 0
-750 -1320 759 0
750 1320 -759 0
-750 -1321 760 0
750 1321 -760 0
-750 -1322 761 0
750 1322 -761 0
-750 -1323 762 0
750 1323 -762 0
-750 -1324 763 0
750 1324 -763 0
-750 -1325 764 0
750 1325 -764 0
-750 -1326 765 0
750 1326 -765 0
-751 -1327 752 0
751 1327 -752 0
-751 -1328 753 0
751 1328 -753 0
-751 -1329 754 0
751 1329 -754 0
-751 -1330 755 0
751 1330 -755 0
-751 -1331 756 0
751 1331 -756 0
-751 -1332 757 0
751 1332 -757 0
-751 -1333 758 0
751 1333 -758 0
-751 -1334 759 0
751 1334 -759 0
-751 -1335 760 0
751 1335 -760 0
-751 -1336 761 0
751 1336 -761 0
-751 -1337 762 0
751 1337 -762 0
-751 -1338 763 0
751 1338 -763 0
-751 -1339 764 0
751 1339 -764 0
-751 -1340 765 0
751 1340 -765 0
-752 -1341 753 0
752 1341 -753 0
-752 -1342 754 0
752 1342 -754 0
-752 -1343 755 0
752 1343 -755 0
-752 -1344 756 0
752 1344 -756 0
-752 -1345 757 0
752 1345 -757 0
-752 -1346 758 0
752 1346 -758 0
-752 -1347 759 0
752 1347 -759 0
-752 -1348 760 0
752 1348 -760 0
-752 -1349 761 0
752 1349 -761 0
-752 -1350 762 0
752 1350 -762 0
-752 -1351 763 0
752 1351 -763 0
-752 -1352 764 0
752 1352 -764 0
-752 -1353 765 0
752 1353 -765 0
-753 -1354 754 0
753 1354 -754 0
-753 -1355 755 0
753 1355 -755 0
-753 -1356 756 0
753 1356 -756 0
-753 -1357 757 0
753 1357 -757 0
-753 -1358 758 0
753 1358 -758 0
-753 -1359 759 0
753 1359 -759 0
-753 -1360 760 0
753 1360 -760 0
-753 -1361 761 0
753 1361 -761 0
-753 -1362 762 0
753 1362 -762 0
-753 -1363 763 0
753 1363 -763 0
-753 -1364 764 0
753 1364 -764 0
-753 -1365 765 0
753 1365 -765 0
-754 -1366 755 0
754 1366 -755 0
-754 -1367 756 0
754 1367 -756 0
-754 -1368 757 0
754 1368 -757 0
-754 -1369 758 0
754 1369 -758 0
-754 -1370 759 0
754 1370 -759 0
-754 -1371 760 0
754 1371 -760 0
-754 -1372 761 0
754 1372 -761 0
-754 -1373 762 0
754 1373 -762 0
-754 -1374 763 0
754 1374 -763 0
-754 -1375 764 0
754 1375 -764 0
-754 -1376 765 0
754 1376 -765 0
-755 -1377 756 0
755 1377 -756 0
-755 -1378 757 0
755 1378 -757 0
-755 -1379 758 0
755 1379 -758 0
-755 -1380 759 0
755 1380 -759 0
-755 -1381 760 0
755 1381 -760 0
-755 -1382 761 0
755 1382 -761 0
-755 -1383 762 0
755 1383 -762 0
-755 -1384 763 0
755 1384 -763 0
-755 -1385 764 0
755 1385 -764 0
-755 -1386 765 0
755 1386 -765 0
-756 -1387 757 0
756 1387 -757 0
-756 -1388 758 0
756 1388 -758 0
-756 -1389 759 0
756 1389 -759 0
-756 -1390 760 0
756 1390 -760 0
-756 -1391 761 0
756 1391 -761 0
-756 -1392 762 0
756 1392 -762 0
-756 -1393 763 0
756 1393 -763 0
-756 -1394 764 0
756 1394 -764 0
-756 -1395 765 0
756 1395 -765 0
-757 -1396 758 0
757 1396 -758 0
-757 -1397 759 0
757 1397 -759 0
-757 -1398 760 0
757 1398 -760 0
-757 -1399 761 0
757 1399 -761 0
-757 -1400 762 0
757 1400 -762 0
-757 -1401 763 0
757 1401 -763 0
-757 -1402 764 0
757 1402 -764 0
-757 -1403 765 0
757 1403 -765 0
-758 -1404 759 0
758 1404 -759 0
-758 -1405 760 0
758 1405 -760 0
-758 -1406 761 0
758 1406 -761 0
-758 -1407 762 0
758 1407 -762 0
-758 -1408 763 0
758 1408 -763 0
-758 -1409 764 0
758 1409 -764 0
-758 -1410 765 0
758 1410 -765 0
-759 -1411 760 0
759 1411 -760 0
-759 -1412 761 0
759 1412 -761 0
-759 -1413 762 0
759 1413 -762 0
-759 -1414 763 0
759 1414 -763 0
-759 -1415 764 0
759 1415 -764 0
-759 -1416 765 0
759 1416 -765 0
-760 -1417 761 0
760 1417 -761 0
-760 -1418 762 0
760 1418 -762 0
-760 -1419 763 0
760 1419 -763 0
-760 -1420 764 0
760 1420 -764 0
-760 -1421 765 0
760 1421 -765 0
-761 -1422 762 0
761 1422 -762 0
-761 -1423 763 0
761 1423 -763 0
-761 -1424 764 0
761 1424 -764 0
-761 -1425 765 0
761 1425 -765 0
-762 -1426 763 0
762 1426 -763 0
-762 -1427 764 0
762 1427 -764 0
-762 -1428 765 0
762 1428 -765 0
-763 -1429 764 0
763 1429 -764 0
-763 -1430 765 0
763 1430 -765 0
-764 -1431 765 0
764 1431 -765 0
-766 -802 767 0
766 802 -767 0
-766 -803 768 0
766 803 -768 0
-766 -804 769 0
766 804 -769 0
-766 -805 770 0
766 805 -770 0
-766 -806 771 0
766 806 -771 0
-766 -807 772 0
766 807 -772 0
-766 -808 773 0
766 808 -773 0
-766 -809 774 0
766 809 -774 0
-766 -810 775 0
766 810 -775 0
-766 -811 776 0
766 811 -776 0
-766 -812 777 0
766 812 -777 0
-766 -813 778 0
766 813 -778 0
-766 -814 779 0
766 814 -779 0
-766 -815 780 0
766 815 -780 0
-766 -816 781 0
766 816 -781 0
-766 -817 782 0
766 817 -782 0
-766 -818 783 0
766 818 -783 0
-766 -819 784 0
766 819 -784 0
-766 -820 785 0
766 820 -785 0
-766 -821 786 0
766 821 -786 0
-766 -822 787 0
766 822 -787 0
-766 -823 788 0
766 823 -788 0
-766 -824 789 0
766 824 -789 0
-766 -825 790 0
766 825 -790 0
-766 -826 791 0
766 826 -791 0
-766 -827 792 0
766 827 -792 0
-766 -828 793 0
766 828 -793 0
-766 -829 794 0
766 829 -794 0
-766 -830 795 0
766 830 -795 0
-766 -831 796 0
766 831 -796 0
-766 -832 797 0
766 832 -797 0
-766 -833 798 0
766 833 -798 0
-766 -834 799 0
766 834 -799 0
-766 -835 800 0
766 835 -800 0
-766 -836 801 0
766 836 -801 0
-767 -837 768 0
767 837 -768 0
-767 -838 769 0
767 838 -769 0
-767 -839 770 0
767 839 -770 0
-767 -840 771 0
767 840 -771 0
-767 -841 772 0
767 841 -772 0
-767 -842 773 0
767 842 -773 0
-767 -843 774 0
767 843 -774 0
-767 -844 775 0
767 844 -775 0
-767 -845 776 0
767 845 -776 0
-767 -846 777 0
767 846 -777 0
-767 -847 778 0
767 847 -778 0
-767 -848 779 0
767 848 -779 0
-767 -849 780 0
767 849 -780 0
-767 -850 781 0
767 850 -781 0
-767 -851 782 0
767 851 -782 0
-767 -852 783 0
767 852 -783 0
-767 -853 784 0
767 853 -784 0
-767 -854 785 0
767 854 -785 0
-767 -855 786 0
767 855 -786 0
-767 -856 787 0
767 856 -787 0
-767 -857 788 0
767 857 -788 0
-767 -858 789 0
767 858 -789 0
-767 -859 790 0
767 859 -790 0
-767 -860 791 0
767 860 -791 0
-767 -861 792 0
767 861 -792 0
-767 -862 793 0
767 862 -793 0
-767 -863 794 0
767 863 -794 0
-767 -864 795 0
767 864 -795 0
-767 -865 796 0
767 865 -796 0
-767 -866 797 0
767 866 -797 0
-767 -867 798 0
767 867 -798 0
-767 -868 799 0
767 868 -799 0
-767 -869 800 0
767 869 -800 0
-767 -870 801 0
767 870 -801 0
-768 -871 769 0
768 871 -769 0
-768 -872 770 0
768 872 -770 0
-768 -873 771 0
768 873 -771 0
-768 -874 772 0
768 874 -772 0
-768 -875 773 0
768 875 -773 0
-768 -876 774 0
768 876 -774 0
-768 -877 775 0
768 877 -775 0
-768 -878 776 0
768 878 -776 0
-768 -879 777 0
768 879 -777 0
-768 -880 778 0
768 880 -778 0
-768 -881 779 0
768 881 -779 0
-768 -882 780 0
768 882 -780 0
-768 -883 781 0
768 883 -781 0
-768 -884 782 0
768 884 -782 0
-768 -885 783 0
768 885 -783 0
-768 -886 784 0
768 886 -784 0
-768 -887 785 0
768 887 -785 0
-768 -888 786 0
768 888 -786 0
-768 -889 787 0
768 889 -787 0
-768 -890 788 0
768 890 -788 0
-768 -891 789 0
768 891 -789 0
-768 -892 790 0
768 892 -790 0
-768 -893 791 0
768 893 -791 0
-768 -894 792 0
768 894 -792 0
-768 -895 793 0
768 895 -793 0
-768 -896 794 0
768 896 -794 0
-768 -897 795 0
768 897 -795 0
-768 -898 796 0
768 898 -796 0
-768 -899 797 0
768 899 -797 0
-768 -900 798 0
768 900 -798 0
-768 -901 799 0
768 901 -799 0
-768 -902 800 0
768 902 -800 0
-768 -903 801 0
768 903 -801 0
-769 -904 770 0
769 904 -770 0
-769 -905 771 0
769 905 -771 0
-769 -906 772 0
769 906 -772 0
-769 -907 773 0
769 907 -773 0
-769 -908 774 0
769 908 -774 0
-769 -909 775 0
769 909 -775 0
-769 -910 776 0
769 910 -776 0
-769 -911 777 0
769 911 -777 0
-769 -912 778 0
769 912 -778 0
-769 -913 779 0
769 913 -779 0
-769 -914 780 0
769 914 -780 0
-769 -915 781 0
769 915 -781 0
-769 -916 782 0
769 916 -782 0
-769 -917 783 0
769 917 -783 0
-769 -918 784 0
769 918 -784 0
-769 -919 785 0
769 919 -785 0
-769 -920 786 0
769 920 -786 0
-769 -921 787 0
769 921 -787 0
-769 -922 788 0
769 922 -788 0
-769 -923 789 0
769 923 -789 0
-769 -924 790 0
769 924 -790 0
-769 -925 791 0
769 925 -791 0
-769 -926 792 0
769 926 -792 0
-769 -927 793 0
769 927 -793 0
-769 -928 794 0
769 928 -794 0
-769 -929 795 0
769 929 -795 0
-769 -930 796 0
769 930 -796 0
-769 -931 797 0
769 931 -797 0
-769 -932 798 0
769 932 -798 0
-769 -933 799 0
769 933 -799 0
-769 -934 800 0
769 934 -800 0
-769 -935 801 0
769 935 -801 0
-770 -936 771 0
770 936 -771 0
-770 -937 772 0
770 937 -772 0
-770 -938 773 0
770 938 -773 0
-770 -939 774 0
770 939 -774 0
-770 -940 775 0
770 940 -775 0
-770 -941 776 0
770 941 -776 0
-770 -942 777 0
770 942 -777 0
-770 -943 778 0
770 943 -778 0
-770 -944 779 0
770 944 -779 0
-770 -945 780 0
770 945 -780 0
-770 -946 781 0
770 946 -781 0
-770 -947 782 0
770 947 -782 0
-770 -948 783 0
770 948 -783 0
-770 -949 784 0
770 949 -784 0
-770 -950 785 0
770 950 -785 0
-770 -951 786 0
770 951 -786 0
-770 -952 787 0
770 952 -787 0
-770 -953 788 0
770 953 -788 0
-770 -954 789 0
770 954 -789 0
-770 -955 790 0
770 955 -790 0
-770 -956 791 0
770 956 -791 0
-770 -957 792 0
770 957 -792 0
-770 -958 793 0
770 958 -793 0
-770 -959 794 0
770 959 -794 0
-770 -960 795 0
770 960 -795 0
-770 -961 796 0
770 961 -796 0
-770 -962 797 0
770 962 -797 0
-770 -963 798 0
770 963 -798 0
-770 -964 799 0
770 964 -799 0
-770 -965 800 0
770 965 -800 0
-770 -966 801 0
770 966 -801 0
-771 -967 772 0
771 967 -772 0
-771 -968 773 0
771 968 -773 0
-771 -969 774 0
771 969 -774 0
-771 -970 775 0
771 970 -775 0
-771 -971 776 0
771 971 -776 0
-771 -972 777 0
771 972 -777 0
-771 -973 778 0
771 973 -778 0
-771 -974 779 0
771 974 -779 0
-771 -975 780 0
771 975 -780 0
-771 -976 781 0
771 976 -781 0
-771 -977 782 0
771 977 -782 0
-771 -978 783 0
771 978 -783 0
-771 -979 784 0
771 979 -784 0
-771 -980 785 0
771 980 -785 0
-771 -981 786 0
771 981 -786 0
-771 -982 787 0
771 982 -787 0
-771 -983 788 0
771 983 -788 0
-771 -984 789 0
771 984 -789 0
-771 -985 790 0
771 985 -790 0
-771 -986 791 0
771 986 -791 0
-771 -987 792 0
771 987 -792 0
-771 -988 793 0
771 988 -793 0
-771 -989 794 0
771 989 -794 0
-771 -990 795 0
771 990 -795 0
-771 -991 796 0
771 991 -796 0
-771 -992 797 0
771 992 -797 0
-771 -993 798 0
771 993 -798 0
-771 -994 799 0
771 994 -799 0
-771 -995 800 0
771 995 -800 0
-771 -996 801 0
771 996 -801 0
-772 -997 773 0
772 997 -773 0
-772 -998 774 0
772 998 -774 0
-772 -999 775 0
772 999 -775 0
-772 -1000 776 0
772 1000 -776 0
-772 -1001 777 0
772 1001 -777 0
-772 -1002 778 0
772 1002 -778 0
-772 -1003 779 0
772 1003 -779 0
-772 -1004 780 0
772 1004 -780 0
-772 -1005 781 0
772 1005 -781 0
-772 -1006 782 0
772 1006 -782 0
-772 -1007 783 0
772 1007 -783 0
-772 -1008 784 0
772 1008 -784 0
-772 -1009 785 0
772 1009 -785 0
-772 -1010 786 0
772 1010 -786 0
-772 -1011 787 0
772 1011 -787 0
-772 -1012 788 0
772 1012 -788 0
-772 -1013 789 0
772 1013 -789 0
-772 -1014 790 0
772 1014 -790 0
-772 -1015 791 0
772 1015 -791 0
-772 -1016 792 0
772 1016 -792 0
-772 -1017 793 0
772 1017 -793 0
-772 -1018 794 0
772 1018 -794 0
-772 -1019 795 0
772 1019 -795 0
-772 -1020 796 0
772 1020 -796 0
-772 -1021 797 0
772 1021 -797 0
-772 -1022 798 0
772 1022 -798 0
-772 -1023 799 0
772 1023 -799 0
-772 -1024 800 0
772 1024 -800 0
-772 -1025 801 0
772 1025 -801 0
-773 -1026 774 0
773 1026 -774 0
-773 -1027 775 0
773 1027 -775 0
-773 -1028 776 0
773 1028 -776 0
-773 -1029 777 0
773 1029 -777 0
-773 -1030 778 0
773 1030 -778 0
-773 -1031 779 0
773 1031 -779 0
-773 -1032 780 0
773 1032 -780 0
-773 -1033 781 0
773 1033 -781 0
-773 -1034 782 0
773 1034 -782 0
-773 -1035 783 0
773 1035 -783 0
-773 -1036 784 0
773 1036 -784 0
-773 -1037 785 0
773 1037 -785 0
-773 -1038 786 0
773 1038 -786 0
-773 -1039 787 0
773 1039 -787 0
-773 -1040 788 0
773 1040 -788 0
-773 -1041 789 0
773 1041 -789 0
-773 -1042 790 0
773 1042 -790 0
-773 -1043 791 0
773 1043 -791 0
-773 -1044 792 0
773 1044 -792 0
-773 -1045 793 0
773 1045 -793 0
-773 -1046 794 0
773 1046 -794 0
-773 -1047 795 0
773 1047 -795 0
-773 -1048 796 0
773 1048 -796 0
-773 -1049 797 0
773 1049 -797 0
-773 -1050 798 0
773 1050 -798 0
-773 -1051 799 0
773 1051 -799 0
-773 -1052 800 0
773 1052 -800 0
-773 -1053 801 0
773 1053 -801 0
-774 -1054 775 0
774 1054 -775 0
-774 -1055 776 0
774 1055 -776 0
-774 -1056 777 0
774 1056 -777 0
-774 -1057 778 0
774 1057 -778 0
-774 -1058 779 0
774 1058 -779 0
-774 -1059 780 0
774 1059 -780 0
-774 -1060 781 0
774 1060 -781 0
-774 -1061 782 0
774 1061 -782 0
-774 -1062 783 0
774 1062 -783 0
-774 -1063 784 0
774 1063 -784 0
-774 -1064 785 0
774 1064 -785 0
-774 -1065 786 0
774 1065 -786 0
-774 -1066 787 0
774 1066 -787 0
-774 -1067 788 0
774 1067 -788 0
-774 -1068 789 0
774 1068 -789 0
-774 -1069 790 0
774 1069 -790 0
-774 -1070 791 0
774 1070 -791 0
-774 -1071 792 0
774 1071 -792 0
-774 -1072 793 0
774 1072 -793 0
-774 -1073 794 0
774 1073 -794 0
-774 -1074 795 0
774 1074 -795 0
-774 -1075 796 0
774 1075 -796 0
-774 -1076 797 0
774 1076 -797 0
-774 -1077 798 0
774 1077 -798 0
-774 -1078 799 0
774 1078 -799 0
-774 -1079 800 0
774 1079 -800 0
-774 -1080 801 0
774 1080 -801 0
-775 -1081 776 0
775 1081 -776 0
-775 -1082 777 0
775 1082 -777 0
-775 -1083 778 0
775 1083 -778 0
-775 -1084 779 0
775 1084 -779 0
-775 -1085 780 0
775 1085 -780 0
-775 -1086 781 0
775 1086 -781 0
-775 -1087 782 0
775 1087 -782 0
-775 -1088 783 0
775 1088 -783 0
-775 -1089 784 0
775 1089 -784 0
-775 -1090 785 0
775 1090 -785 0
-775 -1091 786 0
775 1091 -786 0
-775 -1092 787 0
775 1092 -787 0
-775 -1093 788 0
775 1093 -788 0
-775 -1094 789 0
775 1094 -789 0
-775 -1095 790 0
775 1095 -790 0
-775 -1096 791 0
775 1096 -791 0
-775 -1097 792 0
775 1097 -792 0
-775 -1098 793 0
775 1098 -793 0
-775 -1099 794 0
775 1099 -794 0
-775 -1100 795 0
775 1100 -795 0
-775 -1101 796 0
775 1101 -796 0
-775 -1102 797 0
775 1102 -797 0
-775 -1103 798 0
775 1103 -798 0
-775 -1104 799 0
775 1104 -799 0
-775 -1105 800 0
775 1105 -800 0
-775 -1106 801 0
775 1106 -801 0
-776 -1107 777 0
776 1107 -777 0
-776 -1108 778 0
776 1108 -778 0
-776 -1109 779 0
776 1109 -779 0
-776 -1110 780 0
776 1110 -780 0
-776 -1111 781 0
776 1111 -781 0
-776 -1112 782 0
776 1112 -782 0
-776 -1113 783 0
776 1113 -783 0
-776 -1114 784 0
776 1114 -784 0
-776 -1115 785 0
776 1115 -785 0
-776 -1116 786 0
776 1116 -786 0
-776 -1117 787 0
776 1117 -787 0
-776 -1118 788 0
776 1118 -788 0
-776 -1119 789 0
776 1119 -789 0
-776 -1120 790 0
776 1120 -790 0
-776 -1121 791 0
776 1121 -791 0
-776 -1122 792 0
776 1122 -792 0
-776 -1123 793 0
776 1123 -793 0
-776 -1124 794 0
776 1124 -794 0
-776 -1125 795 0
776 1125 -795 0
-776 -1126 796 0
776 1126 -796 0
-776 -1127 797 0
776 1127 -797 0
-776 -1128 798 0
776 1128 -798 0
-776 -1129 799 0
776 1129 -799 0
-776 -1130 800 0
776 1130 -800 0
-776 -1131 801 0
776 1131 -801 0
-777 -1132 778 0
777 1132 -778 0
-777 -1133 779 0
777 1133 -779 0
-777 -1134 780 0
777 1134 -780 0
-777 -1135 781 0
777 1135 -781 0
-777 -1136 782 0
777 1136 -782 0
-777 -1137 783 0
777 1137 -783 0
-777 -1138 784 0
777 1138 -784 0
-777 -1139 785 0
777 1139 -785 0
-777 -1140 786 0
777 1140 -786 0
-777 -1141 787 0
777 1141 -787 0
-777 -1142 788 0
777 1142 -788 0
-777 -1143 789 0
777 1143 -789 0
-777 -1144 790 0
777 1144 -790 0
-777 -1145 791 0
777 1145 -791 0
-777 -1146 792 0
777 1146 -792 0
-777 -1147 793 0
777 1147 -793 0
-777 -1148 794 0
777 1148 -794 0
-777 -1149 795 0
777 1149 -795 0
-777 -1150 796 0
777 1150 -796 0
-777 -1151 797 0
777 1151 -797 0
-777 -1152 798 0
777 1152 -798 0
-777 -1153 799 0
777 1153 -799 0
-777 -1154 800 0
777 1154 -800 0
-777 -1155 801 0
777 1155 -801 0
-778 -1156 779 0
778 1156 -779 0
-778 -1157 780 0
778 1157 -780 0
-778 -1158 781 0
778 1158 -781 0
-778 -1159 782 0
778 1159 -782 0
-778 -1160 783 0
778 1160 -783 0
-778 -1161 784 0
778 1161 -784 0
-778 -1162 785 0
778 1162 -785 0
-778 -1163 786 0
778 1163 -786 0
-778 -1164 787 0
778 1164 -787 0
-778 -1165 788 0
778 1165 -788 0
-778 -1166 789 0
778 1166 -789 0
-778 -1167 790 0
778 1167 -790 0
-778 -1168 791 0
778 1168 -791 0
-778 -1169 792 0
778 1169 -792 0
-778 -1170 793 0
778 1170 -793 0
-778 -1171 794 0
778 1171 -794 0
-778 -1172 795 0
778 1172 -795 0
-778 -1173 796 0
778 1173 -796 0
-778 -1174 797 0
778 1174 -797 0
-778 -1175 798 0
778 1175 -798 0
-778 -1176 799 0
778 1176 -799 0
-778 -1177 800 0
778 1177 -800 0
-778 -1178 801 0
778 1178 -801 0
-779 -1179 780 0
779 1179 -780 0
-779 -1180 781 0
779 1180 -781 0
-779 -1181 782 0
779 1181 -782 0
-779 -1182 783 0
779 1182 -783 0
-779 -1183 784 0
779 1183 -784 0
-779 -1184 785 0
779 1184 -785 0
-779 -1185 786 0
779 1185 -786 0
-779 -1186 787 0
779 1186 -787 0
-779 -1187 788 0
779 1187 -788 0
-779 -1188 789 0
779 1188 -789 0
-779 -1189 790 0
779 1189 -790 0
-779 -1190 791 0
779 1190 -791 0
-779 -1191 792 0
779 1191 -792 0
-779 -1192 793 0
779 1192 -793 0
-779 -1193 794 0
779 1193 -794 0
-779 -1194 795 0
779 1194 -795 0
-779 -1195 796 0
779 1195 -796 0
-779 -1196 797 0
779 1196 -797 0
-779 -1197 798 0
779 1197 -798 0
-779 -1198 799 0
779 1198 -799 0
-779 -1199 800 0
779 1199 -800 0
-779 -1200 801 0
779 1200 -801 0
-780 -1201 781 0
780 1201 -781 0
-780 -1202 782 0
780 1202 -782 0
-780 -1203 783 0
780 1203 -783 0
-780 -1204 784 0
780 1204 -784 0
-780 -1205 785 0
780 1205 -785 0
-780 -1206 786 0
780 1206 -786 0
-780 -1207 787 0
780 1207 -787 0
-780 -1208 788 0
780 1208 -788 0
-780 -1209 789 0
780 1209 -789 0
-780 -1210 790 0
780 1210 -790 0
-780 -1211 791 0
780 1211 -791 0
-780 -1212 792 0
780 1212 -792 0
-780 -1213 793 0
780 1213 -793 0
-780 -1214 794 0
780 1214 -794 0
-780 -1215 795 0
780 1215 -795 0
-780 -1216 796 0
780 1216 -796 0
-780 -1217 797 0
780 1217 -797 0
-780 -1218 798 0
780 1218 -798 0
-780 -1219 799 0
780 1219 -799 0
-780 -1220 800 0
780 1220 -800 0
-780 -1221 801 0
780 1221 -801 0
-781 -1222 782 0
781 1222 -782 0
-781 -1223 783 0
781 1223 -783 0
-781 -1224 784 0
781 1224 -784 0
-781 -1225 785 0
781 1225 -785 0
-781 -1226 786 0
781 1226 -786 0
-781 -1227 787 0
781 1227 -787 0
-781 -1228 788 0
781 1228 -788 0
-781 -1229 789 0
781 1229 -789 0
-781 -1230 790 0
781 1230 -790 0
-781 -1231 791 0
781 1231 -791 0
-781 -1232 792 0
781 1232 -792 0
-781 -1233 793 0
781 1233 -793 0
-781 -1234 794 0
781 1234 -794 0
-781 -1235 795 0
781 1235 -795 0
-781 -1236 796 0
781 1236 -796 0
-781 -1237 797 0
781 1237 -797 0
-781 -1238 798 0
781 1238 -798 0
-781 -1239 799 0
781 1239 -799 0
-781 -1240 800 0
781 1240 -800 0
-781 -1241 801 0
781 1241 -801 0
-782 -1242 783 0
782 1242 -783 0
-782 -1243 784 0
782 1243 -784 0
-782 -1244 785 0
782 1244 -785 0
-782 -1245 786 0
782 1245 -786 0
-782 -1246 787 0
782 1246 -787 0
-782 -1247 788 0
782 1247 -788 0
-782 -1248 789 0
782 1248 -789 0
-782 -1249 790 0
782 1249 -790 0
-782 -1250 791 0
782 1250 -791 0
-782 -1251 792 0
782 1251 -792 0
-782 -1252 793 0
782 1252 -793 0
-782 -1253 794 0
782 1253 -794 0
-782 -1254 795 0
782 1254 -795 0
-782 -1255 796 0
782 1255 -796 0
-782 -1256 797 0
782 1256 -797 0
-782 -1257 798 0
782 1257 -798 0
-782 -1258 799 0
782 1258 -799 0
-782 -1259 800 0
782 1259 -800 0
-782 -1260 801 0
782 1260 -801 0
-783 -1261 784 0
783 1261 -784 0
-783 -1262 785 0
783 1262 -785 0
-783 -1263 786 0
783 1263 -786 0
-783 -1264 787 0
783 1264 -787 0
-783 -1265 788 0
783 1265 -788 0
-783 -1266 789 0
783 1266 -789 0
-783 -1267 790 0
783 1267 -790 0
-783 -1268 791 0
783 1268 -791 0
-783 -1269 792 0
783 1269 -792 0
-783 -1270 793 0
783 1270 -793 0
-783 -1271 794 0
783 1271 -794 0
-783 -1272 795 0
783 1272 -795 0
-783 -1273 796 0
783 1273 -796 0
-783 -1274 797 0
783 1274 -797 0
-783 -1275 798 0
783 1275 -798 0
-783 -1276 799 0
783 1276 -799 0
-783 -1277 800 0
783 1277 -800 0
-783 -1278 801 0
783 1278 -801 0
-784 -1279 785 0
784 1279 -785 0
-784 -1280 786 0
784 1280 -786 0
-784 -1281 787 0
784 1281 -787 0
-784 -1282 788 0
784 1282 -788 0
-784 -1283 789 0
784 1283 -789 0
-784 -1284 790 0
784 1284 -790 0
-784 -1285 791 0
784 1285 -791 0
-784 -1286 792 0
784 1286 -792 0
-784 -1287 793 0
784 1287 -793 0
-784 -1288 794 0
784 1288 -794 0
-784 -1289 795 0
784 1289 -795 0
-784 -1290 796 0
784 1290 -796 0
-784 -1291 797 0
784 1291 -797 0
-784 -1292 798 0
784 1292 -798 0
-784 -1293 799 0
784 1293 -799 0
-784 -1294 800 0
784 1294 -800 0
-784 -1295 801 0
784 1295 -801 0
-785 -1296 786 0
785 1296 -786 0
-785 -1297 787 0
785 1297 -787 0
-785 -1298 788 0
785 1298 -788 0
-785 -1299 789 0
785 1299 -789 0
-785 -1300 790 0
785 1300 -790 0
-785 -1301 791 0
785 1301 -791 0
-785 -1302 792 0
785 1302 -792 0
-785 -1303 793 0
785 1303 -793 0
-785 -1304 794 0
785 1304 -794 0
-785 -1305 795 0
785 1305 -795 0
-785 -1306 796 0
785 1306 -796 0
-785 -1307 797 0
785 1307 -797 0
-785 -1308 798 0
785 1308 -798 0
-785 -1309 799 0
785 1309 -799 0
-785 -1310 800 0
785 1310 -800 0
-785 -1311 801 0
785 1311 -801 0
-786 -1312 787 0
786 1312 -787 0
-786 -1313 788 0
786 1313 -788 0
-786 -1314 789 0
786 1314 -789 0
-786 -1315 790 0
786 1315 -790 0
-786 -1316 791 0
786 1316 -791 0
-786 -1317 792 0
786 1317 -792 0
-786 -1318 793 0
786 1318 -793 0
-786 -1319 794 0
786 1319 -794 0
-786 -1320 795 0
786 1320 -795 0
-786 -1321 796 0
786 1321 -796 0
-786 -1322 797 0
786 1322 -797 0
-786 -1323 798 0
786 1323 -798 0
-786 -1324 799 0
786 1324 -799 0
-786 -1325 800 0
786 1325 -800 0
-786 -1326 801 0
786 1326 -801 0
-787 -1327 788 0
787 1327 -788 0
-787 -1328 789 0
787 1328 -789 0
-787 -1329 790 0
787 1329 -790 0
-787 -1330 791 0
787 1330 -791 0
-787 -1331 792 0
787 1331 -792 0
-787 -1332 793 0
787 1332 -793 0
-787 -1333 794 0
787 1333 -794 0
-787 -1334 795 0
787 1334 -795 0
-787 -1335 796 0
787 1335 -796 0
-787 -1336 797 0
787 1336 -797 0
-787 -1337 798 0
787 1337 -798 0
-787 -1338 799 0
787 1338 -799 0
-787 -1339 800 0
787 1339 -800 0
-787 -1340 801 0
787 1340 -801 0
-788 -1341 789 0
788 1341 -789 0
-788 -1342 790 0
788 1342 -790 0
-788 -1343 791 0
788 1343 -791 0
-788 -1344 792 0
788 1344 -792 0
-788 -1345 793 0
788 1345 -793 0
-788 -1346 794 0
788 1346 -794 0
-788 -1347 795 0
788 1347 -795 0
-788 -1348 796 0
788 1348 -796 0
-788 -1349 797 0
788 1349 -797 0
-788 -1350 798 0
788 1350 -798 0
-788 -1351 799 0
788 1351 -799 0
-788 -1352 800 0
788 1352 -800 0
-788 -1353 801 0
788 1353 -801 0
-789 -1354 790 0
789 1354 -790 0
-789 -1355 791 0
789 1355 -791 0
-789 -1356 792 0
789 1356 -792 0
-789 -1357 793 0
789 1357 -793 0
-789 -1358 794 0
789 1358 -794 0
-789 -1359 795 0
789 1359 -795 0
-789 -1360 796 0
789 1360 -796 0
-789 -1361 797 0
789 1361 -797 0
-789 -1362 798 0
789 1362 -798 0
-789 -1363 799 0
789 1363 -799 0
-789 -1364 800 0
789 1364 -800 0
-789 -1365 801 0
789 1365 -801 0
-790 -1366 791 0
790 1366 -791 0
-790 -1367 792 0
790 1367 -792 0
-790 -1368 793 0
790 1368 -793 0
-790 -1369 794 0
790 1369 -794 0
-790 -1370 795 0
790 1370 -795 0
-790 -1371 796 0
790 1371 -796 0
-790 -1372 797 0
790 1372 -797 0
-790 -1373 798 0
790 1373 -798 0
-790 -1374 799 0
790 1374 -799 0
-790 -1375 800 0
790 1375 -800 0
-790 -1376 801 0
790 1376 -801 0
-791 -1377 792 0
791 1377 -792 0
-791 -1378 793 0
791 1378 -793 0
-791 -1379 794 0
791 1379 -794 0
-791 -1380 795 0
791 1380 -795 0
-791 -1381 796 0
791 1381 -796 0
-791 -1382 797 0
791 1382 -797 0
-791 -1383 798 0
791 1383 -798 0
-791 -1384 799 0
791 1384 -799 0
-791 -1385 800 0
791 1385 -800 0
-791 -1386 801 0
791 1386 -801 0
-792 -1387 793 0
792 1387 -793 0
-792 -1388 794 0
792 1388 -794 0
-792 -1389 795 0
792 1389 -795 0
-792 -1390 796 0
792 1390 -796 0
-792 -1391 797 0
792 1391 -797 0
-792 -1392 798 0
792 1392 -798 0
-792 -1393 799 0
792 1393 -799 0
-792 -1394 800 0
792 1394 -800 0
-792 -1395 801 0
792 1395 -801 0
-793 -1396 794 0
793 1396 -794 0
-793 -1397 795 0
793 1397 -795 0
-793 -1398 796 0
793 1398 -796 0
-793 -1399 797 0
793 1399 -797 0
-793 -1400 798 0
793 1400 -798 0
-793 -1401 799 0
793 1401 -799 0
-793 -1402 800 0
793 1402 -800 0
-793 -1403 801 0
793 1403 -801 0
-794 -1404 795 0
794 1404 -795 0
-794 -1405 796 0
794 1405 -796 0
-794 -1406 797 0
794 1406 -797 0
-794 -1407 798 0
794 1407 -798 0
-794 -1408 799 0
794 1408 -799 0
-794 -1409 800 0
794 1409 -800 0
-794 -1410 801 0
794 1410 -801 0
-795 -1411 796 0
795 1411 -796 0
-795 -1412 797 0
795 1412 -797 0
-795 -1413 798 0
795 1413 -798 0
-795 -1414 799 0
795 1414 -799 0
-795 -1415 800 0
795 1415 -800 0
-795 -1416 801 0
795 1416 -801 0
-796 -1417 797 0
796 1417 -797 0
-796 -1418 798 0
796 1418 -798 0
-796 -1419 799 0
796 1419 -799 0
-796 -1420 800 0
796 1420 -800 0
-796 -1421 801 0
796 1421 -801 0
-797 -1422 798 0
797 1422 -798 0
-797 -1423 799 0
797 1423 -799 0
-797 -1424 800 0
797 1424 -800 0
-797 -1425 801 0
797 1425 -801 0
-798 -1426 799 0
798 1426 -799 0
-798 -1427 800 0
798 1427 -800 0
-798 -1428 801 0
798 1428 -801 0
-799 -1429 800 0
799 1429 -800 0
-799 -1430 801 0
799 1430 -801 0
-800 -1431 801 0
800 1431 -801 0
-802 -837 803 0
802 837 -803 0
-802 -838 804 0
802 838 -804 0
-802 -839 805 0
802 839 -805 0
-802 -840 806 0
802 840 -806 0
-802 -841 807 0
802 841 -807 0
-802 -842 808 0
802 842 -808 0
-802 -843 809 0
802 843 -809 0
-802 -844 810 0
802 844 -810 0
-802 -845 811 0
802 845 -811 0
-802 -846 812 0
802 846 -812 0
-802 -847 813 0
802 847 -813 0
-802 -848 814 0
802 848 -814 0
-802 -849 815 0
802 849 -815 0
-802 -850 816 0
802 850 -816 0
-802 -851 817 0
802 851 -817 0
-802 -852 818 0
802 852 -818 0
-802 -853 819 0
802 853 -819 0
-802 -854 820 0
802 854 -820 0
-802 -855 821 0
802 855 -821 0
-802 -856 822 0
802 856 -822 0
-802 -857 823 0
802 857 -823 0
-802 -858 824 0
802 858 -824 0
-802 -859 825 0
802 859 -825 0
-802 -860 826 0
802 860 -826 0
-802 -861 827 0
802 861 -827 0
-802 -862 828 0
802 862 -828 0
-802 -863 829 0
802 863 -829 0
-802 -864 830 0
802 864 -830 0
-802 -865 831 0
802 865 -831 0
-802 -866 832 0
802 866 -832 0
-802 -867 833 0
802 867 -833 0
-802 -868 834 0
802 868 -834 0
-802 -869 835 0
802 869 -835 0
-802 -870 836 0
802 870 -836 0
-803 -871 804 0
803 871 -804 0
-803 -872 805 0
803 872 -805 0
-803 -873 806 0
803 873 -806 0
-803 -874 807 0
803 874 -807 0
-803 -875 808 0
803 875 -808 0
-803 -876 809 0
803 876 -809 0
-803 -877 810 0
803 877 -810 0
-803 -878 811 0
803 878 -811 0
-803 -879 812 0
803 879 -812 0
-803 -880 813 0
803 880 -813 0
-803 -881 814 0
803 881 -814 0
-803 -882 815 0
803 882 -815 0
-803 -883 816 0
803 883 -816 0
-803 -884 817 0
803 884 -817 0
-803 -885 818 0
803 885 -818 0
-803 -886 819 0
803 886 -819 0
-803 -887 820 0
803 887 -820 0
-803 -888 821 0
803 888 -821 0
-803 -889 822 0
803 889 -822 0
-803 -890 823 0
803 890 -823 0
-803 -891 824 0
803 891 -824 0
-803 -892 825 0
803 892 -825 0
-803 -893 826 0
803 893 -826 0
-803 -894 827 0
803 894 -827 0
-803 -895 828 0
803 895 -828 0
-803 -896 829 0
803 896 -829 0
-803 -897 830 0
803 897 -830 0
-803 -898 831 0
803 898 -831 0
-803 -899 832 0
803 899 -832 0
-803 -900 833 0
803 900 -833 0
-803 -901 834 0
803 901 -834 0
-803 -902 835 0
803 902 -835 0
-803 -903 836 0
803 903 -836 0
-804 -904 805 0
804 904 -805 0
-804 -905 806 0
804 905 -806 0
-804 -906 807 0
804 906 -807 0
-804 -907 808 0
804 907 -808 0
-804 -908 809 0
804 908 -809 0
-804 -909 810 0
804 909 -810 0
-804 -910 811 0
804 910 -811 0
-804 -911 812 0
804 911 -812 0
-804 -912 813 0
804 912 -813 0
-804 -913 814 0
804 913 -814 0
-804 -914 815 0
804 914 -815 0
-804 -915 816 0
804 915 -816 0
-804 -916 817 0
804 916 -817 0
-804 -917 818 0
804 917 -818 0
-804 -918 819 0
804 918 -819 0
-804 -919 820 0
804 919 -820 0
-804 -920 821 0
804 920 -821 0
-804 -921 822 0
804 921 -822 0
-804 -922 823 0
804 922 -823 0
-804 -923 824 0
804 923 -824 0
-804 -924 825 0
804 924 -825 0
-804 -925 826 0
804 925 -826 0
-804 -926 827 0
804 926 -827 0
-804 -927 828 0
804 927 -828 0
-804 -928 829 0
804 928 -829 0
-804 -929 830 0
804 929 -830 0
-804 -930 831 0
804 930 -831 0
-804 -931 832 0
804 931 -832 0
-804 -932 833 0
804 932 -833 0
-804 -933 834 0
804 933 -834 0
-804 -934 835 0
804 934 -835 0
-804 -935 836 0
804 935 -836 0
-805 -936 806 0
805 936 -806 0
-805 -937 807 0
805 937 -807 0
-805 -938 808 0
805 938 -808 0
-805 -939 809 0
805 939 -809 0
-805 -940 810 0
805 940 -810 0
-805 -941 811 0
805 941 -811 0
-805 -942 812 0
805 942 -812 0
-805 -943 813 0
805 943 -813 0
-805 -944 814 0
805 944 -814 0
-805 -945 815 0
805 945 -815 0
-805 -946 816 0
805 946 -816 0
-805 -947 817 0
805 947 -817 0
-805 -948 818 0
805 948 -818 0
-805 -949 819 0
805 949 -819 0
-805 -950 820 0
805 950 -820 0
-805 -951 821 0
805 951 -821 0
-805 -952 822 0
805 952 -822 0
-805 -953 823 0
805 953 -823 0
-805 -954 824 0
805 954 -824 0
-805 -955 825 0
805 955 -825 0
-805 -956 826 0
805 956 -826 0
-805 -957 827 0
805 957 -827 0
-805 -958 828 0
805 958 -828 0
-805 -959 829 0
805 959 -829 0
-805 -960 830 0
805 960 -830 0
-805 -961 831 0
805 961 -831 0
-805 -962 832 0
805 962 -832 0
-805 -963 833 0
805 963 -833 0
-805 -964 834 0
805 964 -834 0
-805 -965 835 0
805 965 -835 0
-805 -966 836 0
805 966 -836 0
-806 -967 807 0
806 967 -807 0
-806 -968 808 0
806 968 -808 0
-806 -969 809 0
806 969 -809 0
-806 -970 810 0
806 970 -810 0
-806 -971 811 0
806 971 -811 0
-806 -972 812 0
806 972 -812 0
-806 -973 813 0
806 973 -813 0
-806 -974 814 0
806 974 -814 0
-806 -975 815 0
806 975 -815 0
-806 -976 816 0
806 976 -816 0
-806 -977 817 0
806 977 -817 0
-806 -978 818 0
806 978 -818 0
-806 -979 819 0
806 979 -819 0
-806 -980 820 0
806 980 -820 0
-806 -981 821 0
806 981 -821 0
-806 -982 822 0
806 982 -822 0
-806 -983 823 0
806 983 -823 0
-806 -984 824 0
806 984 -824 0
-806 -985 825 0
806 985 -825 0
-806 -986 826 0
806 986 -826 0
-806 -987 827 0
806 987 -827 0
-806 -988 828 0
806 988 -828 0
-806 -989 829 0
806 989 -829 0
-806 -990 830 0
806 990 -830 0
-806 -991 831 0
806 991 -831 0
-806 -992 832 0
806 992 -832 0
-806 -993 833 0
806 993 -833 0
-806 -994 834 0
806 994 -834 0
-806 -995 835 0
806 995 -835 0
-806 -996 836 0
806 996 -836 0
-807 -997 808 0
807 997 -808 0
-807 -998 809 0
807 998 -809 0
-807 -999 810 0
807 999 -810 0
-807 -1000 811 0
807 1000 -811 0
-807 -1001 812 0
807 1001 -812 0
-807 -1002 813 0
807 1002 -813 0
-807 -1003 814 0
807 1003 -814 0
-807 -1004 815 0
807 1004 -815 0
-807 -1005 816 0
807 1005 -816 0
-807 -1006 817 0
807 1006 -817 0
-807 -1007 818 0
807 1007 -818 0
-807 -1008 819 0
807 1008 -819 0
-807 -1009 820 0
807 1009 -820 0
-807 -1010 821 0
807 1010 -821 0
-807 -1011 822 0
807 1011 -822 0
-807 -1012 823 0
807 1012 -823 0
-807 -1013 824 0
807 1013 -824 0
-807 -1014 825 0
807 1014 -825 0
-807 -1015 826 0
807 1015 -826 0
-807 -1016 827 0
807 1016 -827 0
-807 -1017 828 0
807 1017 -828 0
-807 -1018 829 0
807 1018 -829 0
-807 -1019 830 0
807 1019 -830 0
-807 -1020 831 0
807 1020 -831 0
-807 -1021 832 0
807 1021 -832 0
-807 -1022 833 0
807 1022 -833 0
-807 -1023 834 0
807 1023 -834 0
-807 -1024 835 0
807 1024 -835 0
-807 -1025 836 0
807 1025 -836 0
-808 -1026 809 0
808 1026 -809 0
-808 -1027 810 0
808 1027 -810 0
-808 -1028 811 0
808 1028 -811 0
-808 -1029 812 0
808 1029 -812 0
-808 -1030 813 0
808 1030 -813 0
-808 -1031 814 0
808 1031 -814 0
-808 -1032 815 0
808 1032 -815 0
-808 -1033 816 0
808 1033 -816 0
-808 -1034 817 0
808 1034 -817 0
-808 -1035 818 0
808 1035 -818 0
-808 -1036 819 0
808 1036 -819 0
-808 -1037 820 0
808 1037 -820 0
-808 -1038 821 0
808 1038 -821 0
-808 -1039 822 0
808 1039 -822 0
-808 -1040 823 0
808 1040 -823 0
-808 -1041 824 0
808 1041 -824 0
-808 -1042 825 0
808 1042 -825 0
-808 -1043 826 0
808 1043 -826 0
-808 -1044 827 0
808 1044 -827 0
-808 -1045 828 0
808 1045 -828 0
-808 -1046 829 0
808 1046 -829 0
-808 -1047 830 0
808 1047 -830 0
-808 -1048 831 0
808 1048 -831 0
-808 -1049 832 0
808 1049 -832 0
-808 -1050 833 0
808 1050 -833 0
-808 -1051 834 0
808 1051 -834 0
-808 -1052 835 0
808 1052 -835 0
-808 -1053 836 0
808 1053 -836 0
-809 -1054 810 0
809 1054 -810 0
-809 -1055 811 0
809 1055 -811 0
-809 -1056 812 0
809 1056 -812 0
-809 -1057 813 0
809 1057 -813 0
-809 -1058 814 0
809 1058 -814 0
-809 -1059 815 0
809 1059 -815 0
-809 -1060 816 0
809 1060 -816 0
-809 -1061 817 0
809 1061 -817 0
-809 -1062 818 0
809 1062 -818 0
-809 -1063 819 0
809 1063 -819 0
-809 -1064 820 0
809 1064 -820 0
-809 -1065 821 0
809 1065 -821 0
-809 -1066 822 0
809 1066 -822 0
-809 -1067 823 0
809 1067 -823 0
-809 -1068 824 0
809 1068 -824 0
-809 -1069 825 0
809 1069 -825 0
-809 -1070 826 0
809 1070 -826 0
-809 -1071 827 0
809 1071 -827 0
-809 -1072 828 0
809 1072 -828 0
-809 -1073 829 0
809 1073 -829 0
-809 -1074 830 0
809 1074 -830 0
-809 -1075 831 0
809 1075 -831 0
-809 -1076 832 0
809 1076 -832 0
-809 -1077 833 0
809 1077 -833 0
-809 -1078 834 0
809 1078 -834 0
-809 -1079 835 0
809 1079 -835 0
-809 -1080 836 0
809 1080 -836 0
-810 -1081 811 0
810 1081 -811 0
-810 -1082 812 0
810 1082 -812 0
-810 -1083 813 0
810 1083 -813 0
-810 -1084 814 0
810 1084 -814 0
-810 -1085 815 0
810 1085 -815 0
-810 -1086 816 0
810 1086 -816 0
-810 -1087 817 0
810 1087 -817 0
-810 -1088 818 0
810 1088 -818 0
-810 -1089 819 0
810 1089 -819 0
-810 -1090 820 0
810 1090 -820 0
-810 -1091 821 0
810 1091 -821 0
-810 -1092 822 0
810 1092 -822 0
-810 -1093 823 0
810 1093 -823 0
-810 -1094 824 0
810 1094 -824 0
-810 -1095 825 0
810 1095 -825 0
-810 -1096 826 0
810 1096 -826 0
-810 -1097 827 0
810 1097 -827 0
-810 -1098 828 0
810 1098 -828 0
-810 -1099 829 0
810 1099 -829 0
-810 -1100 830 0
810 1100 -830 0
-810 -1101 831 0
810 1101 -831 0
-810 -1102 832 0
810 1102 -832 0
-810 -1103 833 0
810 1103 -833 0
-810 -1104 834 0
810 1104 -834 0
-810 -1105 835 0
810 1105 -835 0
-810 -1106 836 0
810 1106 -836 0
-811 -1107 812 0
811 1107 -812 0
-811 -1108 813 0
811 1108 -813 0
-811 -1109 814 0
811 1109 -814 0
-811 -1110 815 0
811 1110 -815 0
-811 -1111 816 0
811 1111 -816 0
-811 -1112 817 0
811 1112 -817 0
-811 -1113 818 0
811 1113 -818 0
-811 -1114 819 0
811 1114 -819 0
-811 -1115 820 0
811 1115 -820 0
-811 -1116 821 0
811 1116 -821 0
-811 -1117 822 0
811 1117 -822 0
-811 -1118 823 0
811 1118 -823 0
-811 -1119 824 0
811 1119 -824 0
-811 -1120 825 0
811 1120 -825 0
-811 -1121 826 0
811 1121 -826 0
-811 -1122 827 0
811 1122 -827 0
-811 -1123 828 0
811 1123 -828 0
-811 -1124 829 0
811 1124 -829 0
-811 -1125 830 0
811 1125 -830 0
-811 -1126 831 0
811 1126 -831 0
-811 -1127 832 0
811 1127 -832 0
-811 -1128 833 0
811 1128 -833 0
-811 -1129 834 0
811 1129 -834 0
-811 -1130 835 0
811 1130 -835 0
-811 -1131 836 0
811 1131 -836 0
-812 -1132 813 0
812 1132 -813 0
-812 -1133 814 0
812 1133 -814 0
-812 -1134 815 0
812 1134 -815 0
-812 -1135 816 0
812 1135 -816 0
-812 -1136 817 0
812 1136 -817 0
-812 -1137 818 0
812 1137 -818 0
-812 -1138 819 0
812 1138 -819 0
-812 -1139 820 0
812 1139 -820 0
-812 -1140 821 0
812 1140 -821 0
-812 -1141 822 0
812 1141 -822 0
-812 -1142 823 0
812 1142 -823 0
-812 -1143 824 0
812 1143 -824 0
-812 -1144 825 0
812 1144 -825 0
-812 -1145 826 0
812 1145 -826 0
-812 -1146 827 0
812 1146 -827 0
-812 -1147 828 0
812 1147 -828 0
-812 -1148 829 0
812 1148 -829 0
-812 -1149 830 0
812 1149 -830 0
-812 -1150 831 0
812 1150 -831 0
-812 -1151 832 0
812 1151 -832 0
-812 -1152 833 0
812 1152 -833 0
-812 -1153 834 0
812 1153 -834 0
-812 -1154 835 0
812 1154 -835 0
-812 -1155 836 0
812 1155 -836 0
-813 -1156 814 0
813 1156 -814 0
-813 -1157 815 0
813 1157 -815 0
-813 -1158 816 0
813 1158 -816 0
-813 -1159 817 0
813 1159 -817 0
-813 -1160 818 0
813 1160 -818 0
-813 -1161 819 0
813 1161 -819 0
-813 -1162 820 0
813 1162 -820 0
-813 -1163 821 0
813 1163 -821 0
-813 -1164 822 0
813 1164 -822 0
-813 -1165 823 0
813 1165 -823 0
-813 -1166 824 0
813 1166 -824 0
-813 -1167 825 0
813 1167 -825 0
-813 -1168 826 0
813 1168 -826 0
-813 -1169 827 0
813 1169 -827 0
-813 -1170 828 0
813 1170 -828 0
-813 -1171 829 0
813 1171 -829 0
-813 -1172 830 0
813 1172 -830 0
-813 -1173 831 0
813 1173 -831 0
-813 -1174 832 0
813 1174 -832 0
-813 -1175 833 0
813 1175 -833 0
-813 -1176 834 0
813 1176 -834 0
-813 -1177 835 0
813 1177 -835 0
-813 -1178 836 0
813 1178 -836 0
-814 -1179 815 0
814 1179 -815 0
-814 -1180 816 0
814 1180 -816 0
-814 -1181 817 0
814 1181 -817 0
-814 -1182 818 0
814 1182 -818 0
-814 -1183 819 0
814 1183 -819 0
-814 -1184 820 0
814 1184 -820 0
-814 -1185 821 0
814 1185 -821 0
-814 -1186 822 0
814 1186 -822 0
-814 -1187 823 0
814 1187 -823 0
-814 -1188 824 0
814 1188 -824 0
-814 -1189 825 0
814 1189 -825 0
-814 -1190 826 0
814 1190 -826 0
-814 -1191 827 0
814 1191 -827 0
-814 -1192 828 0
814 1192 -828 0
-814 -1193 829 0
814 1193 -829 0
-814 -1194 830 0
814 1194 -830 0
-814 -1195 831 0
814 1195 -831 0
-814 -1196 832 0
814 1196 -832 0
-814 -1197 833 0
814 1197 -833 0
-814 -1198 834 0
814 1198 -834 0
-814 -1199 835 0
814 1199 -835 0
-814 -1200 836 0
814 1200 -836 0
-815 -1201 816 0
815 1201 -816 0
-815 -1202 817 0
815 1202 -817 0
-815 -1203 818 0
815 1203 -818 0
-815 -1204 819 0
815 1204 -819 0
-815 -1205 820 0
815 1205 -820 0
-815 -1206 821 0
815 1206 -821 0
-815 -1207 822 0
815 1207 -822 0
-815 -1208 823 0
815 1208 -823 0
-815 -1209 824 0
815 1209 -824 0
-815 -1210 825 0
815 1210 -825 0
-815 -1211 826 0
815 1211 -826 0
-815 -1212 827 0
815 1212 -827 0
-815 -1213 828 0
815 1213 -828 0
-815 -1214 829 0
815 1214 -829 0
-815 -1215 830 0
815 1215 -830 0
-815 -1216 831 0
815 1216 -831 0
-815 -1217 832 0
815 1217 -832 0
-815 -1218 833 0
815 1218 -833 0
-815 -1219 834 0
815 1219 -834 0
-815 -1220 835 0
815 1220 -835 0
-815 -1221 836 0
815 1221 -836 0
-816 -1222 817 0
816 1222 -817 0
-816 -1223 818 0
816 1223 -818 0
-816 -1224 819 0
816 1224 -819 0
-816 -1225 820 0
816 1225 -820 0
-816 -1226 821 0
816 1226 -821 0
-816 -1227 822 0
816 1227 -822 0
-816 -1228 823 0
816 1228 -823 0
-816 -1229 824 0
816 1229 -824 0
-816 -1230 825 0
816 1230 -825 0
-816 -1231 826 0
816 1231 -826 0
-816 -1232 827 0
816 1232 -827 0
-816 -1233 828 0
816 1233 -828 0
-816 -1234 829 0
816 1234 -829 0
-816 -1235 830 0
816 1235 -830 0
-816 -1236 831 0
816 1236 -831 0
-816 -1237 832 0
816 1237 -832 0
-816 -1238 833 0
816 1238 -833 0
-816 -1239 834 0
816 1239 -834 0
-816 -1240 835 0
816 1240 -835 0
-816 -1241 836 0
816 1241 -836 0
-817 -1242 818 0
817 1242 -818 0
-817 -1243 819 0
817 1243 -819 0
-817 -1244 820 0
817 1244 -820 0
-817 -1245 821 0
817 1245 -821 0
-817 -1246 822 0
817 1246 -822 0
-817 -1247 823 0
817 1247 -823 0
-817 -1248 824 0
817 1248 -824 0
-817 -1249 825 0
817 1249 -825 0
-817 -1250 826 0
817 1250 -826 0
-817 -1251 827 0
817 1251 -827 0
-817 -1252 828 0
817 1252 -828 0
-817 -1253 829 0
817 1253 -829 0
-817 -1254 830 0
817 1254 -830 0
-817 -1255 831 0
817 1255 -831 0
-817 -1256 832 0
817 1256 -832 0
-817 -1257 833 0
817 1257 -833 0
-817 -1258 834 0
817 1258 -834 0
-817 -1259 835 0
817 1259 -835 0
-817 -1260 836 0
817 1260 -836 0
-818 -1261 819 0
818 1261 -819 0
-818 -1262 820 0
818 1262 -820 0
-818 -1263 821 0
818 1263 -821 0
-818 -1264 822 0
818 1264 -822 0
-818 -1265 823 0
818 1265 -823 0
-818 -1266 824 0
818 1266 -824 0
-818 -1267 825 0
818 1267 -825 0
-818 -1268 826 0
818 1268 -826 0
-818 -1269 827 0
818 1269 -827 0
-818 -1270 828 0
818 1270 -828 0
-818 -1271 829 0
818 1271 -829 0
-818 -1272 830 0
818 1272 -830 0
-818 -1273 831 0
818 1273 -831 0
-818 -1274 832 0
818 1274 -832 0
-818 -1275 833 0
818 1275 -833 0
-818 -1276 834 0
818 1276 -834 0
-818 -1277 835 0
818 1277 -835 0
-818 -1278 836 0
818 1278 -836 0
-819 -1279 820 0
819 1279 -820 0
-819 -1280 821 0
819 1280 -821 0
-819 -1281 822 0
819 1281 -822 0
-819 -1282 823 0
819 1282 -823 0
-819 -1283 824 0
819 1283 -824 0
-819 -1284 825 0
819 1284 -825 0
-819 -1285 826 0
819 1285 -826 0
-819 -1286 827 0
819 1286 -827 0
-819 -1287 828 0
819 1287 -828 0
-819 -1288 829 0
819 1288 -829 0
-819 -1289 830 0
819 1289 -830 0
-819 -1290 831 0
819 1290 -831 0
-819 -1291 832 0
819 1291 -832 0
-819 -1292 833 0
819 1292 -833 0
-819 -1293 834 0
819 1293 -834 0
-819 -1294 835 0
819 1294 -835 0
-819 -1295 836 0
819 1295 -836 0
-820 -1296 821 0
820 1296 -821 0
-820 -1297 822 0
820 1297 -822 0
-820 -1298 823 0
820 1298 -823 0
-820 -1299 824 0
820 1299 -824 0
-820 -1300 825 0
820 1300 -825 0
-820 -1301 826 0
820 1301 -826 0
-820 -1302 827 0
820 1302 -827 0
-820 -1303 828 0
820 1303 -828 0
-820 -1304 829 0
820 1304 -829 0
-820 -1305 830 0
820 1305 -830 0
-820 -1306 831 0
820 1306 -831 0
-820 -1307 832 0
820 1307 -832 0
-820 -1308 833 0
820 1308 -833 0
-820 -1309 834 0
820 1309 -834 0
-820 -1310 835 0
820 1310 -835 0
-820 -1311 836 0
820 1311 -836 0
-821 -1312 822 0
821 1312 -822 0
-821 -1313 823 0
821 1313 -823 0
-821 -1314 824 0
821 1314 -824 0
-821 -1315 825 0
821 1315 -825 0
-821 -1316 826 0
821 1316 -826 0
-821 -1317 827 0
821 1317 -827 0
-821 -1318 828 0
821 1318 -828 0
-821 -1319 829 0
821 1319 -829 0
-821 -1320 830 0
821 1320 -830 0
-821 -1321 831 0
821 1321 -831 0
-821 -1322 832 0
821 1322 -832 0
-821 -1323 833 0
821 1323 -833 0
-821 -1324 834 0
821 1324 -834 0
-821 -1325 835 0
821 1325 -835 0
-821 -1326 836 0
821 1326 -836 0
-822 -1327 823 0
822 1327 -823 0
-822 -1328 824 0
822 1328 -824 0
-822 -1329 825 0
822 1329 -825 0
-822 -1330 826 0
822 1330 -826 0
-822 -1331 827 0
822 1331 -827 0
-822 -1332 828 0
822 1332 -828 0
-822 -1333 829 0
822 1333 -829 0
-822 -1334 830 0
822 1334 -830 0
-822 -1335 831 0
822 1335 -831 0
-822 -1336 832 0
822 1336 -832 0
-822 -1337 833 0
822 1337 -833 0
-822 -1338 834 0
822 1338 -834 0
-822 -1339 835 0
822 1339 -835 0
-822 -1340 836 0
822 1340 -836 0
-823 -1341 824 0
823 1341 -824 0
-823 -1342 825 0
823 1342 -825 0
-823 -1343 826 0
823 1343 -826 0
-823 -1344 827 0
823 1344 -827 0
-823 -1345 828 0
823 1345 -828 0
-823 -1346 829 0
823 1346 -829 0
-823 -1347 830 0
823 1347 -830 0
-823 -1348 831 0
823 1348 -831 0
-823 -1349 832 0
823 1349 -832 0
-823 -1350 833 0
823 1350 -833 0
-823 -1351 834 0
823 1351 -834 0
-823 -1352 835 0
823 1352 -835 0
-823 -1353 836 0
823 1353 -836 0
-824 -1354 825 0
824 1354 -825 0
-824 -1355 826 0
824 1355 -826 0
-824 -1356 827 0
824 1356 -827 0
-824 -1357 828 0
824 1357 -828 0
-824 -1358 829 0
824 1358 -829 0
-824 -1359 830 0
824 1359 -830 0
-824 -1360 831 0
824 1360 -831 0
-824 -1361 832 0
824 1361 -832 0
-824 -1362 833 0
824 1362 -833 0
-824 -1363 834 0
824 1363 -834 0
-824 -1364 835 0
824 1364 -835 0
-824 -1365 836 0
824 1365 -836 0
-825 -1366 826 0
825 1366 -826 0
-825 -1367 827 0
825 1367 -827 0
-825 -1368 828 0
825 1368 -828 0
-825 -1369 829 0
825 1369 -829 0
-825 -1370 830 0
825 1370 -830 0
-825 -1371 831 0
825 1371 -831 0
-825 -1372 832 0
825 1372 -832 0
-825 -1373 833 0
825 1373 -833 0
-825 -1374 834 0
825 1374 -834 0
-825 -1375 835 0
825 1375 -835 0
-825 -1376 836 0
825 1376 -836 0
-826 -1377 827 0
826 1377 -827 0
-826 -1378 828 0
826 1378 -828 0
-826 -1379 829 0
826 1379 -829 0
-826 -1380 830 0
826 1380 -830 0
-826 -1381 831 0
826 1381 -831 0
-826 -1382 832 0
826 1382 -832 0
-826 -1383 833 0
826 1383 -833 0
-826 -1384 834 0
826 1384 -834 0
-826 -1385 835 0
826 1385 -835 0
-826 -1386 836 0
826 1386 -836 0
-827 -1387 828 0
827 1387 -828 0
-827 -1388 829 0
827 1388 -829 0
-827 -1389 830 0
827 1389 -830 0
-827 -1390 831 0
827 1390 -831 0
-827 -1391 832 0
827 1391 -832 0
-827 -1392 833 0
827 1392 -833 0
-827 -1393 834 0
827 1393 -834 0
-827 -1394 835 0
827 1394 -835 0
-827 -1395 836 0
827 1395 -836 0
-828 -1396 829 0
828 1396 -829 0
-828 -1397 830 0
828 1397 -830 0
-828 -1398 831 0
828 1398 -831 0
-828 -1399 832 0
828 1399 -832 0
-828 -1400 833 0
828 1400 -833 0
-828 -1401 834 0
828 1401 -834 0
-828 -1402 835 0
828 1402 -835 0
-828 -1403 836 0
828 1403 -836 0
-829 -1404 830 0
829 1404 -830 0
-829 -1405 831 0
829 1405 -831 0
-829 -1406 832 0
829 1406 -832 0
-829 -1407 833 0
829 1407 -833 0
-829 -1408 834 0
829 1408 -834 0
-829 -1409 835 0
829 1409 -835 0
-829 -1410 836 0
829 1410 -836 0
-830 -1411 831 0
830 1411 -831 0
-830 -1412 832 0
830 1412 -832 0
-830 -1413 833 0
830 1413 -833 0
-830 -1414 834 0
830 1414 -834 0
-830 -1415 835 0
830 1415 -835 0
-830 -1416 836 0
830 1416 -836 0
-831 -1417 832 0
831 1417 -832 0
-831 -1418 833 0
831 1418 -833 0
-831 -1419 834 0
831 1419 -834 0
-831 -1420 835 0
831 1420 -835 0
-831 -1421 836 0
831 1421 -836 0
-832 -1422 833 0
832 1422 -833 0
-832 -1423 834 0
832 1423 -834 0
-832 -1424 835 0
832 1424 -835 0
-832 -1425 836 0
832 1425 -836 0
-833 -1426 834 0
833 1426 -834 0
-833 -1427 835 0
833 1427 -835 0
-833 -1428 836 0
833 1428 -836 0
-834 -1429 835 0
834 1429 -835 0
-834 -1430 836 0
834 1430 -836 0
-835 -1431 836 0
835 1431 -836 0
-837 -871 838 0
837 871 -838 0
-837 -872 839 0
837 872 -839 0
-837 -873 840 0
837 873 -840 0
-837 -874 841 0
837 874 -841 0
-837 -875 842 0
837 875 -842 0
-837 -876 843 0
837 876 -843 0
-837 -877 844 0
837 877 -844 0
-837 -878 845 0
837 878 -845 0
-837 -879 846 0
837 879 -846 0
-837 -880 847 0
837 880 -847 0
-837 -881 848 0
837 881 -848 0
-837 -882 849 0
837 882 -849 0
-837 -883 850 0
837 883 -850 0
-837 -884 851 0
837 884 -851 0
-837 -885 852 0
837 885 -852 0
-837 -886 853 0
837 886 -853 0
-837 -887 854 0
837 887 -854 0
-837 -888 855 0
837 888 -855 0
-837 -889 856 0
837 889 -856 0
-837 -890 857 0
837 890 -857 0
-837 -891 858 0
837 891 -858 0
-837 -892 859 0
837 892 -859 0
-837 -893 860 0
837 893 -860 0
-837 -894 861 0
837 894 -861 0
-837 -895 862 0
837 895 -862 0
-837 -896 863 0
837 896 -863 0
-837 -897 864 0
837 897 -864 0
-837 -898 865 0
837 898 -865 0
-837 -899 866 0
837 899 -866 0
-837 -900 867 0
837 900 -867 0
-837 -901 868 0
837 901 -868 0
-837 -902 869 0
837 902 -869 0
-837 -903 870 0
837 903 -870 0
-838 -904 839 0
838 904 -839 0
-838 -905 840 0
838 905 -840 0
-838 -906 841 0
838 906 -841 0
-838 -907 842 0
838 907 -842 0
-838 -908 843 0
838 908 -843 0
-838 -909 844 0
838 909 -844 0
-838 -910 845 0
838 910 -845 0
-838 -911 846 0
838 911 -846 0
-838 -912 847 0
838 912 -847 0
-838 -913 848 0
838 913 -848 0
-838 -914 849 0
838 914 -849 0
-838 -915 850 0
838 915 -850 0
-838 -916 851 0
838 916 -851 0
-838 -917 852 0
838 917 -852 0
-838 -918 853 0
838 918 -853 0
-838 -919 854 0
838 919 -854 0
-838 -920 855 0
838 920 -855 0
-838 -921 856 0
838 921 -856 0
-838 -922 857 0
838 922 -857 0
-838 -923 858 0
838 923 -858 0
-838 -924 859 0
838 924 -859 0
-838 -925 860 0
838 925 -860 0
-838 -926 861 0
838 926 -861 0
-838 -927 862 0
838 927 -862 0
-838 -928 863 0
838 928 -863 0
-838 -929 864 0
838 929 -864 0
-838 -930 865 0
838 930 -865 0
-838 -931 866 0
838 931 -866 0
-838 -932 867 0
838 932 -867 0
-838 -933 868 0
838 933 -868 0
-838 -934 869 0
838 934 -869 0
-838 -935 870 0
838 935 -870 0
-839 -936 840 0
839 936 -840 0
-839 -937 841 0
839 937 -841 0
-839 -938 842 0
839 938 -842 0
-839 -939 843 0
839 939 -843 0
-839 -940 844 0
839 940 -844 0
-839 -941 845 0
839 941 -845 0
-839 -942 846 0
839 942 -846 0
-839 -943 847 0
839 943 -847 0
-839 -944 848 0
839 944 -848 0
-839 -945 849 0
839 945 -849 0
-839 -946 850 0
839 946 -850 0
-839 -947 851 0
839 947 -851 0
-839 -948 852 0
839 948 -852 0
-839 -949 853 0
839 949 -853 0
-839 -950 854 0
839 950 -854 0
-839 -951 855 0
839 951 -855 0
-839 -952 856 0
839 952 -856 0
-839 -953 857 0
839 953 -857 0
-839 -954 858 0
839 954 -858 0
-839 -955 859 0
839 955 -859 0
-839 -956 860 0
839 956 -860 0
-839 -957 861 0
839 957 -861 0
-839 -958 862 0
839 958 -862 0
-839 -959 863 0
839 959 -863 0
-839 -960 864 0
839 960 -864 0
-839 -961 865 0
839 961 -865 0
-839 -962 866 0
839 962 -866 0
-839 -963 867 0
839 963 -867 0
-839 -964 868 0
839 964 -868 0
-839 -965 869 0
839 965 -869 0
-839 -966 870 0
839 966 -870 0
-840 -967 841 0
840 967 -841 0
-840 -968 842 0
840 968 -842 0
-840 -969 843 0
840 969 -843 0
-840 -970 844 0
840 970 -844 0
-840 -971 845 0
840 971 -845 0
-840 -972 846 0
840 972 -846 0
-840 -973 847 0
840 973 -847 0
-840 -974 848 0
840 974 -848 0
-840 -975 849 0
840 975 -849 0
-840 -976 850 0
840 976 -850 0
-840 -977 851 0
840 977 -851 0
-840 -978 852 0
840 978 -852 0
-840 -979 853 0
840 979 -853 0
-840 -980 854 0
840 980 -854 0
-840 -981 855 0
840 981 -855 0
-840 -982 856 0
840 982 -856 0
-840 -983 857 0
840 983 -857 0
-840 -984 858 0
840 984 -858 0
-840 -985 859 0
840 985 -859 0
-840 -986 860 0
840 986 -860 0
-840 -987 861 0
840 987 -861 0
-840 -988 862 0
840 988 -862 0
-840 -989 863 0
840 989 -863 0
-840 -990 864 0
840 990 -864 0
-840 -991 865 0
840 991 -865 0
-840 -992 866 0
840 992 -866 0
-840 -993 867 0
840 993 -867 0
-840 -994 868 0
840 994 -868 0
-840 -995 869 0
840 995 -869 0
-840 -996 870 0
840 996 -870 0
-841 -997 842 0
841 997 -842 0
-841 -998 843 0
841 998 -843 0
-841 -999 844 0
841 999 -844 0
-841 -1000 845 0
841 1000 -845 0
-841 -1001 846 0
841 1001 -846 0
-841 -1002 847 0
841 1002 -847 0
-841 -1003 848 0
841 1003 -848 0
-841 -1004 849 0
841 1004 -849 0
-841 -1005 850 0
841 1005 -850 0
-841 -1006 851 0
841 1006 -851 0
-841 -1007 852 0
841 1007 -852 0
-841 -1008 853 0
841 1008 -853 0
-841 -1009 854 0
841 1009 -854 0
-841 -1010 855 0
841 1010 -855 0
-841 -1011 856 0
841 1011 -856 0
-841 -1012 857 0
841 1012 -857 0
-841 -1013 858 0
841 1013 -858 0
-841 -1014 859 0
841 1014 -859 0
-841 -1015 860 0
841 1015 -860 0
-841 -1016 861 0
841 1016 -861 0
-841 -1017 862 0
841 1017 -862 0
-841 -1018 863 0
841 1018 -863 0
-841 -1019 864 0
841 1019 -864 0
-841 -1020 865 0
841 1020 -865 0
-841 -1021 866 0
841 1021 -866 0
-841 -1022 867 0
841 1022 -867 0
-841 -1023 868 0
841 1023 -868 0
-841 -1024 869 0
841 1024 -869 0
-841 -1025 870 0
841 1025 -870 0
-842 -1026 843 0
842 1026 -843 0
-842 -1027 844 0
842 1027 -844 0
-842 -1028 845 0
842 1028 -845 0
-842 -1029 846 0
842 1029 -846 0
-842 -1030 847 0
842 1030 -847 0
-842 -1031 848 0
842 1031 -848 0
-842 -1032 849 0
842 1032 -849 0
-842 -1033 850 0
842 1033 -850 0
-842 -1034 851 0
842 1034 -851 0
-842 -1035 852 0
842 1035 -852 0
-842 -1036 853 0
842 1036 -853 0
-842 -1037 854 0
842 1037 -854 0
-842 -1038 855 0
842 1038 -855 0
-842 -1039 856 0
842 1039 -856 0
-842 -1040 857 0
842 1040 -857 0
-842 -1041 858 0
842 1041 -858 0
-842 -1042 859 0
842 1042 -859 0
-842 -1043 860 0
842 1043 -860 0
-842 -1044 861 0
842 1044 -861 0
-842 -1045 862 0
842 1045 -862 0
-842 -1046 863 0
842 1046 -863 0
-842 -1047 864 0
842 1047 -864 0
-842 -1048 865 0
842 1048 -865 0
-842 -1049 866 0
842 1049 -866 0
-842 -1050 867 0
842 1050 -867 0
-842 -1051 868 0
842 1051 -868 0
-842 -1052 869 0
842 1052 -869 0
-842 -1053 870 0
842 1053 -870 0
-843 -1054 844 0
843 1054 -844 0
-843 -1055 845 0
843 1055 -845 0
-843 -1056 846 0
843 1056 -846 0
-843 -1057 847 0
843 1057 -847 0
-843 -1058 848 0
843 1058 -848 0
-843 -1059 849 0
843 1059 -849 0
-843 -1060 850 0
843 1060 -850 0
-843 -1061 851 0
843 1061 -851 0
-843 -1062 852 0
843 1062 -852 0
-843 -1063 853 0
843 1063 -853 0
-843 -1064 854 0
843 1064 -854 0
-843 -1065 855 0
843 1065 -855 0
-843 -1066 856 0
843 1066 -856 0
-843 -1067 857 0
843 1067 -857 0
-843 -1068 858 0
843 1068 -858 0
-843 -1069 859 0
843 1069 -859 0
-843 -1070 860 0
843 1070 -860 0
-843 -1071 861 0
843 1071 -861 0
-843 -1072 862 0
843 1072 -862 0
-843 -1073 863 0
843 1073 -863 0
-843 -1074 864 0
843 1074 -864 0
-843 -1075 865 0
843 1075 -865 0
-843 -1076 866 0
843 1076 -866 0
-843 -1077 867 0
843 1077 -867 0
-843 -1078 868 0
843 1078 -868 0
-843 -1079 869 0
843 1079 -869 0
-843 -1080 870 0
843 1080 -870 0
-844 -1081 845 0
844 1081 -845 0
-844 -1082 846 0
844 1082 -846 0
-844 -1083 847 0
844 1083 -847 0
-844 -1084 848 0
844 1084 -848 0
-844 -1085 849 0
844 1085 -849 0
-844 -1086 850 0
844 1086 -850 0
-844 -1087 851 0
844 1087 -851 0
-844 -1088 852 0
844 1088 -852 0
-844 -1089 853 0
844 1089 -853 0
-844 -1090 854 0
844 1090 -854 0
-844 -1091 855 0
844 1091 -855 0
-844 -1092 856 0
844 1092 -856 0
-844 -1093 857 0
844 1093 -857 0
-844 -1094 858 0
844 1094 -858 0
-844 -1095 859 0
844 1095 -859 0
-844 -1096 860 0
844 1096 -860 0
-844 -1097 861 0
844 1097 -861 0
-844 -1098 862 0
844 1098 -862 0
-844 -1099 863 0
844 1099 -863 0
-844 -1100 864 0
844 1100 -864 0
-844 -1101 865 0
844 1101 -865 0
-844 -1102 866 0
844 1102 -866 0
-844 -1103 867 0
844 1103 -867 0
-844 -1104 868 0
844 1104 -868 0
-844 -1105 869 0
844 1105 -869 0
-844 -1106 870 0
844 1106 -870 0
-845 -1107 846 0
845 1107 -846 0
-845 -1108 847 0
845 1108 -847 0
-845 -1109 848 0
845 1109 -848 0
-845 -1110 849 0
845 1110 -849 0
-845 -1111 850 0
845 1111 -850 0
-845 -1112 851 0
845 1112 -851 0
-845 -1113 852 0
845 1113 -852 0
-845 -1114 853 0
845 1114 -853 0
-845 -1115 854 0
845 1115 -854 0
-845 -1116 855 0
845 1116 -855 0
-845 -1117 856 0
845 1117 -856 0
-845 -1118 857 0
845 1118 -857 0
-845 -1119 858 0
845 1119 -858 0
-845 -1120 859 0
845 1120 -859 0
-845 -1121 860 0
845 1121 -860 0
-845 -1122 861 0
845 1122 -861 0
-845 -1123 862 0
845 1123 -862 0
-845 -1124 863 0
845 1124 -863 0
-845 -1125 864 0
845 1125 -864 0
-845 -1126 865 0
845 1126 -865 0
-845 -1127 866 0
845 1127 -866 0
-845 -1128 867 0
845 1128 -867 0
-845 -1129 868 0
845 1129 -868 0
-845 -1130 869 0
845 1130 -869 0
-845 -1131 870 0
845 1131 -870 0
-846 -1132 847 0
846 1132 -847 0
-846 -1133 848 0
846 1133 -848 0
-846 -1134 849 0
846 1134 -849 0
-846 -1135 850 0
846 1135 -850 0
-846 -1136 851 0
846 1136 -851 0
-846 -1137 852 0
846 1137 -852 0
-846 -1138 853 0
846 1138 -853 0
-846 -1139 854 0
846 1139 -854 0
-846 -1140 855 0
846 1140 -855 0
-846 -1141 856 0
846 1141 -856 0
-846 -1142 857 0
846 1142 -857 0
-846 -1143 858 0
846 1143 -858 0
-846 -1144 859 0
846 1144 -859 0
-846 -1145 860 0
846 1145 -860 0
-846 -1146 861 0
846 1146 -861 0
-846 -1147 862 0
846 1147 -862 0
-846 -1148 863 0
846 1148 -863 0
-846 -1149 864 0
846 1149 -864 0
-846 -1150 865 0
846 1150 -865 0
-846 -1151 866 0
846 1151 -866 0
-846 -1152 867 0
846 1152 -867 0
-846 -1153 868 0
846 1153 -868 0
-846 -1154 869 0
846 1154 -869 0
-846 -1155 870 0
846 1155 -870 0
-847 -1156 848 0
847 1156 -848 0
-847 -1157 849 0
847 1157 -849 0
-847 -1158 850 0
847 1158 -850 0
-847 -1159 851 0
847 1159 -851 0
-847 -1160 852 0
847 1160 -852 0
-847 -1161 853 0
847 1161 -853 0
-847 -1162 854 0
847 1162 -854 0
-847 -1163 855 0
847 1163 -855 0
-847 -1164 856 0
847 1164 -856 0
-847 -1165 857 0
847 1165 -857 0
-847 -1166 858 0
847 1166 -858 0
-847 -1167 859 0
847 1167 -859 0
-847 -1168 860 0
847 1168 -860 0
-847 -1169 861 0
847 1169 -861 0
-847 -1170 862 0
847 1170 -862 0
-847 -1171 863 0
847 1171 -863 0
-847 -1172 864 0
847 1172 -864 0
-847 -1173 865 0
847 1173 -865 0
-847 -1174 866 0
847 1174 -866 0
-847 -1175 867 0
847 1175 -867 0
-847 -1176 868 0
847 1176 -868 0
-847 -1177 869 0
847 1177 -869 0
-847 -1178 870 0
847 1178 -870 0
-848 -1179 849 0
848 1179 -849 0
-848 -1180 850 0
848 1180 -850 0
-848 -1181 851 0
848 1181 -851 0
-848 -1182 852 0
848 1182 -852 0
-848 -1183 853 0
848 1183 -853 0
-848 -1184 854 0
848 1184 -854 0
-848 -1185 855 0
848 1185 -855 0
-848 -1186 856 0
848 1186 -856 0
-848 -1187 857 0
848 1187 -857 0
-848 -1188 858 0
848 1188 -858 0
-848 -1189 859 0
848 1189 -859 0
-848 -1190 860 0
848 1190 -860 0
-848 -1191 861 0
848 1191 -861 0
-848 -1192 862 0
848 1192 -862 0
-848 -1193 863 0
848 1193 -863 0
-848 -1194 864 0
848 1194 -864 0
-848 -1195 865 0
848 1195 -865 0
-848 -1196 866 0
848 1196 -866 0
-848 -1197 867 0
848 1197 -867 0
-848 -1198 868 0
848 1198 -868 0
-848 -1199 869 0
848 1199 -869 0
-848 -1200 870 0
848 1200 -870 0
-849 -1201 850 0
849 1201 -850 0
-849 -1202 851 0
849 1202 -851 0
-849 -1203 852 0
849 1203 -852 0
-849 -1204 853 0
849 1204 -853 0
-849 -1205 854 0
849 1205 -854 0
-849 -1206 855 0
849 1206 -855 0
-849 -1207 856 0
849 1207 -856 0
-849 -1208 857 0
849 1208 -857 0
-849 -1209 858 0
849 1209 -858 0
-849 -1210 859 0
849 1210 -859 0
-849 -1211 860 0
849 1211 -860 0
-849 -1212 861 0
849 1212 -861 0
-849 -1213 862 0
849 1213 -862 0
-849 -1214 863 0
849 1214 -863 0
-849 -1215 864 0
849 1215 -864 0
-849 -1216 865 0
849 1216 -865 0
-849 -1217 866 0
849 1217 -866 0
-849 -1218 867 0
849 1218 -867 0
-849 -1219 868 0
849 1219 -868 0
-849 -1220 869 0
849 1220 -869 0
-849 -1221 870 0
849 1221 -870 0
-850 -1222 851 0
850 1222 -851 0
-850 -1223 852 0
850 1223 -852 0
-850 -1224 853 0
850 1224 -853 0
-850 -1225 854 0
850 1225 -854 0
-850 -1226 855 0
850 1226 -855 0
-850 -1227 856 0
850 1227 -856 0
-850 -1228 857 0
850 1228 -857 0
-850 -1229 858 0
850 1229 -858 0
-850 -1230 859 0
850 1230 -859 0
-850 -1231 860 0
850 1231 -860 0
-850 -1232 861 0
850 1232 -861 0
-850 -1233 862 0
850 1233 -862 0
-850 -1234 863 0
850 1234 -863 0
-850 -1235 864 0
850 1235 -864 0
-850 -1236 865 0
850 1236 -865 0
-850 -1237 866 0
850 1237 -866 0
-850 -1238 867 0
850 1238 -867 0
-850 -1239 868 0
850 1239 -868 0
-850 -1240 869 0
850 1240 -869 0
-850 -1241 870 0
850 1241 -870 0
-851 -1242 852 0
851 1242 -852 0
-851 -1243 853 0
851 1243 -853 0
-851 -1244 854 0
851 1244 -854 0
-851 -1245 855 0
851 1245 -855 0
-851 -1246 856 0
851 1246 -856 0
-851 -1247 857 0
851 1247 -857 0
-851 -1248 858 0
851 1248 -858 0
-851 -1249 859 0
851 1249 -859 0
-851 -1250 860 0
851 1250 -860 0
-851 -1251 861 0
851 1251 -861 0
-851 -1252 862 0
851 1252 -862 0
-851 -1253 863 0
851 1253 -863 0
-851 -1254 864 0
851 1254 -864 0
-851 -1255 865 0
851 1255 -865 0
-851 -1256 866 0
851 1256 -866 0
-851 -1257 867 0
851 1257 -867 0
-851 -1258 868 0
851 1258 -868 0
-851 -1259 869 0
851 1259 -869 0
-851 -1260 870 0
851 1260 -870 0
-852 -1261 853 0
852 1261 -853 0
-852 -1262 854 0
852 1262 -854 0
-852 -1263 855 0
852 1263 -855 0
-852 -1264 856 0
852 1264 -856 0
-852 -1265 857 0
852 1265 -857 0
-852 -1266 858 0
852 1266 -858 0
-852 -1267 859 0
852 1267 -859 0
-852 -1268 860 0
852 1268 -860 0
-852 -1269 861 0
852 1269 -861 0
-852 -1270 862 0
852 1270 -862 0
-852 -1271 863 0
852 1271 -863 0
-852 -1272 864 0
852 1272 -864 0
-852 -1273 865 0
852 1273 -865 0
-852 -1274 866 0
852 1274 -866 0
-852 -1275 867 0
852 1275 -867 0
-852 -1276 868 0
852 1276 -868 0
-852 -1277 869 0
852 1277 -869 0
-852 -1278 870 0
852 1278 -870 0
-853 -1279 854 0
853 1279 -854 0
-853 -1280 855 0
853 1280 -855 0
-853 -1281 856 0
853 1281 -856 0
-853 -1282 857 0
853 1282 -857 0
-853 -1283 858 0
853 1283 -858 0
-853 -1284 859 0
853 1284 -859 0
-853 -1285 860 0
853 1285 -860 0
-853 -1286 861 0
853 1286 -861 0
-853 -1287 862 0
853 1287 -862 0
-853 -1288 863 0
853 1288 -863 0
-853 -1289 864 0
853 1289 -864 0
-853 -1290 865 0
853 1290 -865 0
-853 -1291 866 0
853 1291 -866 0
-853 -1292 867 0
853 1292 -867 0
-853 -1293 868 0
853 1293 -868 0
-853 -1294 869 0
853 1294 -869 0
-853 -1295 870 0
853 1295 -870 0
-854 -1296 855 0
854 1296 -855 0
-854 -1297 856 0
854 1297 -856 0
-854 -1298 857 0
854 1298 -857 0
-854 -1299 858 0
854 1299 -858 0
-854 -1300 859 0
854 1300 -859 0
-854 -1301 860 0
854 1301 -860 0
-854 -1302 861 0
854 1302 -861 0
-854 -1303 862 0
854 1303 -862 0
-854 -1304 863 0
854 1304 -863 0
-854 -1305 864 0
854 1305 -864 0
-854 -1306 865 0
854 1306 -865 0
-854 -1307 866 0
854 1307 -866 0
-854 -1308 867 0
854 1308 -867 0
-854 -1309 868 0
854 1309 -868 0
-854 -1310 869 0
854 1310 -869 0
-854 -1311 870 0
854 1311 -870 0
-855 -1312 856 0
855 1312 -856 0
-855 -1313 857 0
855 1313 -857 0
-855 -1314 858 0
855 1314 -858 0
-855 -1315 859 0
855 1315 -859 0
-855 -1316 860 0
855 1316 -860 0
-855 -1317 861 0
855 1317 -861 0
-855 -1318 862 0
855 1318 -862 0
-855 -1319 863 0
855 1319 -863 0
-855 -1320 864 0
855 1320 -864 0
-855 -1321 865 0
855 1321 -865 0
-855 -1322 866 0
855 1322 -866 0
-855 -1323 867 0
855 1323 -867 0
-855 -1324 868 0
855 1324 -868 0
-855 -1325 869 0
855 1325 -869 0
-855 -1326 870 0
855 1326 -870 0
-856 -1327 857 0
856 1327 -857 0
-856 -1328 858 0
856 1328 -858 0
-856 -1329 859 0
856 1329 -859 0
-856 -1330 860 0
856 1330 -860 0
-856 -1331 861 0
856 1331 -861 0
-856 -1332 862 0
856 1332 -862 0
-856 -1333 863 0
856 1333 -863 0
-856 -1334 864 0
856 1334 -864 0
-856 -1335 865 0
856 1335 -865 0
-856 -1336 866 0
856 1336 -866 0
-856 -1337 867 0
856 1337 -867 0
-856 -1338 868 0
856 1338 -868 0
-856 -1339 869 0
856 1339 -869 0
-856 -1340 870 0
856 1340 -870 0
-857 -1341 858 0
857 1341 -858 0
-857 -1342 859 0
857 1342 -859 0
-857 -1343 860 0
857 1343 -860 0
-857 -1344 861 0
857 1344 -861 0
-857 -1345 862 0
857 1345 -862 0
-857 -1346 863 0
857 1346 -863 0
-857 -1347 864 0
857 1347 -864 0
-857 -1348 865 0
857 1348 -865 0
-857 -1349 866 0
857 1349 -866 0
-857 -1350 867 0
857 1350 -867 0
-857 -1351 868 0
857 1351 -868 0
-857 -1352 869 0
857 1352 -869 0
-857 -1353 870 0
857 1353 -870 0
-858 -1354 859 0
858 1354 -859 0
-858 -1355 860 0
858 1355 -860 0
-858 -1356 861 0
858 1356 -861 0
-858 -1357 862 0
858 1357 -862 0
-858 -1358 863 0
858 1358 -863 0
-858 -1359 864 0
858 1359 -864 0
-858 -1360 865 0
858 1360 -865 0
-858 -1361 866 0
858 1361 -866 0
-858 -1362 867 0
858 1362 -867 0
-858 -1363 868 0
858 1363 -868 0
-858 -1364 869 0
858 1364 -869 0
-858 -1365 870 0
858 1365 -870 0
-859 -1366 860 0
859 1366 -860 0
-859 -1367 861 0
859 1367 -861 0
-859 -1368 862 0
859 1368 -862 0
-859 -1369 863 0
859 1369 -863 0
-859 -1370 864 0
859 1370 -864 0
-859 -1371 865 0
859 1371 -865 0
-859 -1372 866 0
859 1372 -866 0
-859 -1373 867 0
859 1373 -867 0
-859 -1374 868 0
859 1374 -868 0
-859 -1375 869 0
859 1375 -869 0
-859 -1376 870 0
859 1376 -870 0
-860 -1377 861 0
860 1377 -861 0
-860 -1378 862 0
860 1378 -862 0
-860 -1379 863 0
860 1379 -863 0
-860 -1380 864 0
860 1380 -864 0
-860 -1381 865 0
860 1381 -865 0
-860 -1382 866 0
860 1382 -866 0
-860 -1383 867 0
860 1383 -867 0
-860 -1384 868 0
860 1384 -868 0
-860 -1385 869 0
860 1385 -869 0
-860 -1386 870 0
860 1386 -870 0
-861 -1387 862 0
861 1387 -862 0
-861 -1388 863 0
861 1388 -863 0
-861 -1389 864 0
861 1389 -864 0
-861 -1390 865 0
861 1390 -865 0
-861 -1391 866 0
861 1391 -866 0
-861 -1392 867 0
861 1392 -867 0
-861 -1393 868 0
861 1393 -868 0
-861 -1394 869 0
861 1394 -869 0
-861 -1395 870 0
861 1395 -870 0
-862 -1396 863 0
862 1396 -863 0
-862 -1397 864 0
862 1397 -864 0
-862 -1398 865 0
862 1398 -865 0
-862 -1399 866 0
862 1399 -866 0
-862 -1400 867 0
862 1400 -867 0
-862 -1401 868 0
862 1401 -868 0
-862 -1402 869 0
862 1402 -869 0
-862 -1403 870 0
862 1403 -870 0
-863 -1404 864 0
863 1404 -864 0
-863 -1405 865 0
863 1405 -865 0
-863 -1406 866 0
863 1406 -866 0
-863 -1407 867 0
863 1407 -867 0
-863 -1408 868 0
863 1408 -868 0
-863 -1409 869 0
863 1409 -869 0
-863 -1410 870 0
863 1410 -870 0
-864 -1411 865 0
864 1411 -865 0
-864 -1412 866 0
864 1412 -866 0
-864 -1413 867 0
864 1413 -867 0
-864 -1414 868 0
864 1414 -868 0
-864 -1415 869 0
864 1415 -869 0
-864 -1416 870 0
864 1416 -870 0
-865 -1417 866 0
865 1417 -866 0
-865 -1418 867 0
865 1418 -867 0
-865 -1419 868 0
865 1419 -868 0
-865 -1420 869 0
865 1420 -869 0
-865 -1421 870 0
865 1421 -870 0
-866 -1422 867 0
866 1422 -867 0
-866 -1423 868 0
866 1423 -868 0
-866 -1424 869 0
866 1424 -869 0
-866 -1425 870 0
866 1425 -870 0
-867 -1426 868 0
867 1426 -868 0
-867 -1427 869 0
867 1427 -869 0
-867 -1428 870 0
867 1428 -870 0
-868 -1429 869 0
868 1429 -869 0
-868 -1430 870 0
868 1430 -870 0
-869 -1431 870 0
869 1431 -870 0
-871 -904 872 0
871 904 -872 0
-871 -905 873 0
871 905 -873 0
-871 -906 874 0
871 906 -874 0
-871 -907 875 0
871 907 -875 0
-871 -908 876 0
871 908 -876 0
-871 -909 877 0
871 909 -877 0
-871 -910 878 0
871 910 -878 0
-871 -911 879 0
871 911 -879 0
-871 -912 880 0
871 912 -880 0
-871 -913 881 0
871 913 -881 0
-871 -914 882 0
871 914 -882 0
-871 -915 883 0
871 915 -883 0
-871 -916 884 0
871 916 -884 0
-871 -917 885 0
871 917 -885 0
-871 -918 886 0
871 918 -886 0
-871 -919 887 0
871 919 -887 0
-871 -920 888 0
871 920 -888 0
-871 -921 889 0
871 921 -889 0
-871 -922 890 0
871 922 -890 0
-871 -923 891 0
871 923 -891 0
-871 -924 892 0
871 924 -892 0
-871 -925 893 0
871 925 -893 0
-871 -926 894 0
871 926 -894 0
-871 -927 895 0
871 927 -895 0
-871 -928 896 0
871 928 -896 0
-871 -929 897 0
871 929 -897 0
-871 -930 898 0
871 930 -898 0
-871 -931 899 0
871 931 -899 0
-871 -932 900 0
871 932 -900 0
-871 -933 901 0
871 933 -901 0
-871 -934 902 0
871 934 -902 0
-871 -935 903 0
871 935 -903 0
-872 -936 873 0
872 936 -873 0
-872 -937 874 0
872 937 -874 0
-872 -938 875 0
872 938 -875 0
-872 -939 876 0
872 939 -876 0
-872 -940 877 0
872 940 -877 0
-872 -941 878 0
872 941 -878 0
-872 -942 879 0
872 942 -879 0
-872 -943 880 0
872 943 -880 0
-872 -944 881 0
872 944 -881 0
-872 -945 882 0
872 945 -882 0
-872 -946 883 0
872 946 -883 0
-872 -947 884 0
872 947 -884 0
-872 -948 885 0
872 948 -885 0
-872 -949 886 0
872 949 -886 0
-872 -950 887 0
872 950 -887 0
-872 -951 888 0
872 951 -888 0
-872 -952 889 0
872 952 -889 0
-872 -953 890 0
872 953 -890 0
-872 -954 891 0
872 954 -891 0
-872 -955 892 0
872 955 -892 0
-872 -956 893 0
872 956 -893 0
-872 -957 894 0
872 957 -894 0
-872 -958 895 0
872 958 -895 0
-872 -959 896 0
872 959 -896 0
-872 -960 897 0
872 960 -897 0
-872 -961 898 0
872 961 -898 0
-872 -962 899 0
872 962 -899 0
-872 -963 900 0
872 963 -900 0
-872 -964 901 0
872 964 -901 0
-872 -965 902 0
872 965 -902 0
-872 -966 903 0
872 966 -903 0
-873 -967 874 0
873 967 -874 0
-873 -968 875 0
873 968 -875 0
-873 -969 876 0
873 969 -876 0
-873 -970 877 0
873 970 -877 0
-873 -971 878 0
873 971 -878 0
-873 -972 879 0
873 972 -879 0
-873 -973 880 0
873 973 -880 0
-873 -974 881 0
873 974 -881 0
-873 -975 882 0
873 975 -882 0
-873 -976 883 0
873 976 -883 0
-873 -977 884 0
873 977 -884 0
-873 -978 885 0
873 978 -885 0
-873 -979 886 0
873 979 -886 0
-873 -980 887 0
873 980 -887 0
-873 -981 888 0
873 981 -888 0
-873 -982 889 0
873 982 -889 0
-873 -983 890 0
873 983 -890 0
-873 -984 891 0
873 984 -891 0
-873 -985 892 0
873 985 -892 0
-873 -986 893 0
873 986 -893 0
-873 -987 894 0
873 987 -894 0
-873 -988 895 0
873 988 -895 0
-873 -989 896 0
873 989 -896 0
-873 -990 897 0
873 990 -897 0
-873 -991 898 0
873 991 -898 0
-873 -992 899 0
873 992 -899 0
-873 -993 900 0
873 993 -900 0
-873 -994 901 0
873 994 -901 0
-873 -995 902 0
873 995 -902 0
-873 -996 903 0
873 996 -903 0
-874 -997 875 0
874 997 -875 0
-874 -998 876 0
874 998 -876 0
-874 -999 877 0
874 999 -877 0
-874 -1000 878 0
874 1000 -878 0
-874 -1001 879 0
874 1001 -879 0
-874 -1002 880 0
874 1002 -880 0
-874 -1003 881 0
874 1003 -881 0
-874 -1004 882 0
874 1004 -882 0
-874 -1005 883 0
874 1005 -883 0
-874 -1006 884 0
874 1006 -884 0
-874 -1007 885 0
874 1007 -885 0
-874 -1008 886 0
874 1008 -886 0
-874 -1009 887 0
874 1009 -887 0
-874 -1010 888 0
874 1010 -888 0
-874 -1011 889 0
874 1011 -889 0
-874 -1012 890 0
874 1012 -890 0
-874 -1013 891 0
874 1013 -891 0
-874 -1014 892 0
874 1014 -892 0
-874 -1015 893 0
874 1015 -893 0
-874 -1016 894 0
874 1016 -894 0
-874 -1017 895 0
874 1017 -895 0
-874 -1018 896 0
874 1018 -896 0
-874 -1019 897 0
874 1019 -897 0
-874 -1020 898 0
874 1020 -898 0
-874 -1021 899 0
874 1021 -899 0
-874 -1022 900 0
874 1022 -900 0
-874 -1023 901 0
874 1023 -901 0
-874 -1024 902 0
874 1024 -902 0
-874 -1025 903 0
874 1025 -903 0
-875 -1026 876 0
875 1026 -876 0
-875 -1027 877 0
875 1027 -877 0
-875 -1028 878 0
875 1028 -878 0
-875 -1029 879 0
875 1029 -879 0
-875 -1030 880 0
875 1030 -880 0
-875 -1031 881 0
875 1031 -881 0
-875 -1032 882 0
875 1032 -882 0
-875 -1033 883 0
875 1033 -883 0
-875 -1034 884 0
875 1034 -884 0
-875 -1035 885 0
875 1035 -885 0
-875 -1036 886 0
875 1036 -886 0
-875 -1037 887 0
875 1037 -887 0
-875 -1038 888 0
875 1038 -888 0
-875 -1039 889 0
875 1039 -889 0
-875 -1040 890 0
875 1040 -890 0
-875 -1041 891 0
875 1041 -891 0
-875 -1042 892 0
875 1042 -892 0
-875 -1043 893 0
875 1043 -893 0
-875 -1044 894 0
875 1044 -894 0
-875 -1045 895 0
875 1045 -895 0
-875 -1046 896 0
875 1046 -896 0
-875 -1047 897 0
875 1047 -897 0
-875 -1048 898 0
875 1048 -898 0
-875 -1049 899 0
875 1049 -899 0
-875 -1050 900 0
875 1050 -900 0
-875 -1051 901 0
875 1051 -901 0
-875 -1052 902 0
875 1052 -902 0
-875 -1053 903 0
875 1053 -903 0
-876 -1054 877 0
876 1054 -877 0
-876 -1055 878 0
876 1055 -878 0
-876 -1056 879 0
876 1056 -879 0
-876 -1057 880 0
876 1057 -880 0
-876 -1058 881 0
876 1058 -881 0
-876 -1059 882 0
876 1059 -882 0
-876 -1060 883 0
876 1060 -883 0
-876 -1061 884 0
876 1061 -884 0
-876 -1062 885 0
876 1062 -885 0
-876 -1063 886 0
876 1063 -886 0
-876 -1064 887 0
876 1064 -887 0
-876 -1065 888 0
876 1065 -888 0
-876 -1066 889 0
876 1066 -889 0
-876 -1067 890 0
876 1067 -890 0
-876 -1068 891 0
876 1068 -891 0
-876 -1069 892 0
876 1069 -892 0
-876 -1070 893 0
876 1070 -893 0
-876 -1071 894 0
876 1071 -894 0
-876 -1072 895 0
876 1072 -895 0
-876 -1073 896 0
876 1073 -896 0
-876 -1074 897 0
876 1074 -897 0
-876 -1075 898 0
876 1075 -898 0
-876 -1076 899 0
876 1076 -899 0
-876 -1077 900 0
876 1077 -900 0
-876 -1078 901 0
876 1078 -901 0
-876 -1079 902 0
876 1079 -902 0
-876 -1080 903 0
876 1080 -903 0
-877 -1081 878 0
877 1081 -878 0
-877 -1082 879 0
877 1082 -879 0
-877 -1083 880 0
877 1083 -880 0
-877 -1084 881 0
877 1084 -881 0
-877 -1085 882 0
877 1085 -882 0
-877 -1086 883 0
877 1086 -883 0
-877 -1087 884 0
877 1087 -884 0
-877 -1088 885 0
877 1088 -885 0
-877 -1089 886 0
877 1089 -886 0
-877 -1090 887 0
877 1090 -887 0
-877 -1091 888 0
877 1091 -888 0
-877 -1092 889 0
877 1092 -889 0
-877 -1093 890 0
877 1093 -890 0
-877 -1094 891 0
877 1094 -891 0
-877 -1095 892 0
877 1095 -892 0
-877 -1096 893 0
877 1096 -893 0
-877 -1097 894 0
877 1097 -894 0
-877 -1098 895 0
877 1098 -895 0
-877 -1099 896 0
877 1099 -896 0
-877 -1100 897 0
877 1100 -897 0
-877 -1101 898 0
877 1101 -898 0
-877 -1102 899 0
877 1102 -899 0
-877 -1103 900 0
877 1103 -900 0
-877 -1104 901 0
877 1104 -901 0
-877 -1105 902 0
877 1105 -902 0
-877 -1106 903 0
877 1106 -903 0
-878 -1107 879 0
878 1107 -879 0
-878 -1108 880 0
878 1108 -880 0
-878 -1109 881 0
878 1109 -881 0
-878 -1110 882 0
878 1110 -882 0
-878 -1111 883 0
878 1111 -883 0
-878 -1112 884 0
878 1112 -884 0
-878 -1113 885 0
878 1113 -885 0
-878 -1114 886 0
878 1114 -886 0
-878 -1115 887 0
878 1115 -887 0
-878 -1116 888 0
878 1116 -888 0
-878 -1117 889 0
878 1117 -889 0
-878 -1118 890 0
878 1118 -890 0
-878 -1119 891 0
878 1119 -891 0
-878 -1120 892 0
878 1120 -892 0
-878 -1121 893 0
878 1121 -893 0
-878 -1122 894 0
878 1122 -894 0
-878 -1123 895 0
878 1123 -895 0
-878 -1124 896 0
878 1124 -896 0
-878 -1125 897 0
878 1125 -897 0
-878 -1126 898 0
878 1126 -898 0
-878 -1127 899 0
878 1127 -899 0
-878 -1128 900 0
878 1128 -900 0
-878 -1129 901 0
878 1129 -901 0
-878 -1130 902 0
878 1130 -902 0
-878 -1131 903 0
878 1131 -903 0
-879 -1132 880 0
879 1132 -880 0
-879 -1133 881 0
879 1133 -881 0
-879 -1134 882 0
879 1134 -882 0
-879 -1135 883 0
879 1135 -883 0
-879 -1136 884 0
879 1136 -884 0
-879 -1137 885 0
879 1137 -885 0
-879 -1138 886 0
879 1138 -886 0
-879 -1139 887 0
879 1139 -887 0
-879 -1140 888 0
879 1140 -888 0
-879 -1141 889 0
879 1141 -889 0
-879 -1142 890 0
879 1142 -890 0
-879 -1143 891 0
879 1143 -891 0
-879 -1144 892 0
879 1144 -892 0
-879 -1145 893 0
879 1145 -893 0
-879 -1146 894 0
879 1146 -894 0
-879 -1147 895 0
879 1147 -895 0
-879 -1148 896 0
879 1148 -896 0
-879 -1149 897 0
879 1149 -897 0
-879 -1150 898 0
879 1150 -898 0
-879 -1151 899 0
879 1151 -899 0
-879 -1152 900 0
879 1152 -900 0
-879 -1153 901 0
879 1153 -901 0
-879 -1154 902 0
879 1154 -902 0
-879 -1155 903 0
879 1155 -903 0
-880 -1156 881 0
880 1156 -881 0
-880 -1157 882 0
880 1157 -882 0
-880 -1158 883 0
880 1158 -883 0
-880 -1159 884 0
880 1159 -884 0
-880 -1160 885 0
880 1160 -885 0
-880 -1161 886 0
880 1161 -886 0
-880 -1162 887 0
880 1162 -887 0
-880 -1163 888 0
880 1163 -888 0
-880 -1164 889 0
880 1164 -889 0
-880 -1165 890 0
880 1165 -890 0
-880 -1166 891 0
880 1166 -891 0
-880 -1167 892 0
880 1167 -892 0
-880 -1168 893 0
880 1168 -893 0
-880 -1169 894 0
880 1169 -894 0
-880 -1170 895 0
880 1170 -895 0
-880 -1171 896 0
880 1171 -896 0
-880 -1172 897 0
880 1172 -897 0
-880 -1173 898 0
880 1173 -898 0
-880 -1174 899 0
880 1174 -899 0
-880 -1175 900 0
880 1175 -900 0
-880 -1176 901 0
880 1176 -901 0
-880 -1177 902 0
880 1177 -902 0
-880 -1178 903 0
880 1178 -903 0
-881 -1179 882 0
881 1179 -882 0
-881 -1180 883 0
881 1180 -883 0
-881 -1181 884 0
881 1181 -884 0
-881 -1182 885 0
881 1182 -885 0
-881 -1183 886 0
881 1183 -886 0
-881 -1184 887 0
881 1184 -887 0
-881 -1185 888 0
881 1185 -888 0
-881 -1186 889 0
881 1186 -889 0
-881 -1187 890 0
881 1187 -890 0
-881 -1188 891 0
881 1188 -891 0
-881 -1189 892 0
881 1189 -892 0
-881 -1190 893 0
881 1190 -893 0
-881 -1191 894 0
881 1191 -894 0
-881 -1192 895 0
881 1192 -895 0
-881 -1193 896 0
881 1193 -896 0
-881 -1194 897 0
881 1194 -897 0
-881 -1195 898 0
881 1195 -898 0
-881 -1196 899 0
881 1196 -899 0
-881 -1197 900 0
881 1197 -900 0
-881 -1198 901 0
881 1198 -901 0
-881 -1199 902 0
881 1199 -902 0
-881 -1200 903 0
881 1200 -903 0
-882 -1201 883 0
882 1201 -883 0
-882 -1202 884 0
882 1202 -884 0
-882 -1203 885 0
882 1203 -885 0
-882 -1204 886 0
882 1204 -886 0
-882 -1205 887 0
882 1205 -887 0
-882 -1206 888 0
882 1206 -888 0
-882 -1207 889 0
882 1207 -889 0
-882 -1208 890 0
882 1208 -890 0
-882 -1209 891 0
882 1209 -891 0
-882 -1210 892 0
882 1210 -892 0
-882 -1211 893 0
882 1211 -893 0
-882 -1212 894 0
882 1212 -894 0
-882 -1213 895 0
882 1213 -895 0
-882 -1214 896 0
882 1214 -896 0
-882 -1215 897 0
882 1215 -897 0
-882 -1216 898 0
882 1216 -898 0
-882 -1217 899 0
882 1217 -899 0
-882 -1218 900 0
882 1218 -900 0
-882 -1219 901 0
882 1219 -901 0
-882 -1220 902 0
882 1220 -902 0
-882 -1221 903 0
882 1221 -903 0
-883 -1222 884 0
883 1222 -884 0
-883 -1223 885 0
883 1223 -885 0
-883 -1224 886 0
883 1224 -886 0
-883 -1225 887 0
883 1225 -887 0
-883 -1226 888 0
883 1226 -888 0
-883 -1227 889 0
883 1227 -889 0
-883 -1228 890 0
883 1228 -890 0
-883 -1229 891 0
883 1229 -891 0
-883 -1230 892 0
883 1230 -892 0
-883 -1231 893 0
883 1231 -893 0
-883 -1232 894 0
883 1232 -894 0
-883 -1233 895 0
883 1233 -895 0
-883 -1234 896 0
883 1234 -896 0
-883 -1235 897 0
883 1235 -897 0
-883 -1236 898 0
883 1236 -898 0
-883 -1237 899 0
883 1237 -899 0
-883 -1238 900 0
883 1238 -900 0
-883 -1239 901 0
883 1239 -901 0
-883 -1240 902 0
883 1240 -902 0
-883 -1241 903 0
883 1241 -903 0
-884 -1242 885 0
884 1242 -885 0
-884 -1243 886 0
884 1243 -886 0
-884 -1244 887 0
884 1244 -887 0
-884 -1245 888 0
884 1245 -888 0
-884 -1246 889 0
884 1246 -889 0
-884 -1247 890 0
884 1247 -890 0
-884 -1248 891 0
884 1248 -891 0
-884 -1249 892 0
884 1249 -892 0
-884 -1250 893 0
884 1250 -893 0
-884 -1251 894 0
884 1251 -894 0
-884 -1252 895 0
884 1252 -895 0
-884 -1253 896 0
884 1253 -896 0
-884 -1254 897 0
884 1254 -897 0
-884 -1255 898 0
884 1255 -898 0
-884 -1256 899 0
884 1256 -899 0
-884 -1257 900 0
884 1257 -900 0
-884 -1258 901 0
884 1258 -901 0
-884 -1259 902 0
884 1259 -902 0
-884 -1260 903 0
884 1260 -903 0
-885 -1261 886 0
885 1261 -886 0
-885 -1262 887 0
885 1262 -887 0
-885 -1263 888 0
885 1263 -888 0
-885 -1264 889 0
885 1264 -889 0
-885 -1265 890 0
885 1265 -890 0
-885 -1266 891 0
885 1266 -891 0
-885 -1267 892 0
885 1267 -892 0
-885 -1268 893 0
885 1268 -893 0
-885 -1269 894 0
885 1269 -894 0
-885 -1270 895 0
885 1270 -895 0
-885 -1271 896 0
885 1271 -896 0
-885 -1272 897 0
885 1272 -897 0
-885 -1273 898 0
885 1273 -898 0
-885 -1274 899 0
885 1274 -899 0
-885 -1275 900 0
885 1275 -900 0
-885 -1276 901 0
885 1276 -901 0
-885 -1277 902 0
885 1277 -902 0
-885 -1278 903 0
885 1278 -903 0
-886 -1279 887 0
886 1279 -887 0
-886 -1280 888 0
886 1280 -888 0
-886 -1281 889 0
886 1281 -889 0
-886 -1282 890 0
886 1282 -890 0
-886 -1283 891 0
886 1283 -891 0
-886 -1284 892 0
886 1284 -892 0
-886 -1285 893 0
886 1285 -893 0
-886 -1286 894 0
886 1286 -894 0
-886 -1287 895 0
886 1287 -895 0
-886 -1288 896 0
886 1288 -896 0
-886 -1289 897 0
886 1289 -897 0
-886 -1290 898 0
886 1290 -898 0
-886 -1291 899 0
886 1291 -899 0
-886 -1292 900 0
886 1292 -900 0
-886 -1293 901 0
886 1293 -901 0
-886 -1294 902 0
886 1294 -902 0
-886 -1295 903 0
886 1295 -903 0
-887 -1296 888 0
887 1296 -888 0
-887 -1297 889 0
887 1297 -889 0
-887 -1298 890 0
887 1298 -890 0
-887 -1299 891 0
887 1299 -891 0
-887 -1300 892 0
887 1300 -892 0
-887 -1301 893 0
887 1301 -893 0
-887 -1302 894 0
887 1302 -894 0
-887 -1303 895 0
887 1303 -895 0
-887 -1304 896 0
887 1304 -896 0
-887 -1305 897 0
887 1305 -897 0
-887 -1306 898 0
887 1306 -898 0
-887 -1307 899 0
887 1307 -899 0
-887 -1308 900 0
887 1308 -900 0
-887 -1309 901 0
887 1309 -901 0
-887 -1310 902 0
887 1310 -902 0
-887 -1311 903 0
887 1311 -903 0
-888 -1312 889 0
888 1312 -889 0
-888 -1313 890 0
888 1313 -890 0
-888 -1314 891 0
888 1314 -891 0
-888 -1315 892 0
888 1315 -892 0
-888 -1316 893 0
888 1316 -893 0
-888 -1317 894 0
888 1317 -894 0
-888 -1318 895 0
888 1318 -895 0
-888 -1319 896 0
888 1319 -896 0
-888 -1320 897 0
888 1320 -897 0
-888 -1321 898 0
888 1321 -898 0
-888 -1322 899 0
888 1322 -899 0
-888 -1323 900 0
888 1323 -900 0
-888 -1324 901 0
888 1324 -901 0
-888 -1325 902 0
888 1325 -902 0
-888 -1326 903 0
888 1326 -903 0
-889 -1327 890 0
889 1327 -890 0
-889 -1328 891 0
889 1328 -891 0
-889 -1329 892 0
889 1329 -892 0
-889 -1330 893 0
889 1330 -893 0
-889 -1331 894 0
889 1331 -894 0
-889 -1332 895 0
889 1332 -895 0
-889 -1333 896 0
889 1333 -896 0
-889 -1334 897 0
889 1334 -897 0
-889 -1335 898 0
889 1335 -898 0
-889 -1336 899 0
889 1336 -899 0
-889 -1337 900 0
889 1337 -900 0
-889 -1338 901 0
889 1338 -901 0
-889 -1339 902 0
889 1339 -902 0
-889 -1340 903 0
889 1340 -903 0
-890 -1341 891 0
890 1341 -891 0
-890 -1342 892 0
890 1342 -892 0
-890 -1343 893 0
890 1343 -893 0
-890 -1344 894 0
890 1344 -894 0
-890 -1345 895 0
890 1345 -895 0
-890 -1346 896 0
890 1346 -896 0
-890 -1347 897 0
890 1347 -897 0
-890 -1348 898 0
890 1348 -898 0
-890 -1349 899 0
890 1349 -899 0
-890 -1350 900 0
890 1350 -900 0
-890 -1351 901 0
890 1351 -901 0
-890 -1352 902 0
890 1352 -902 0
-890 -1353 903 0
890 1353 -903 0
-891 -1354 892 0
891 1354 -892 0
-891 -1355 893 0
891 1355 -893 0
-891 -1356 894 0
891 1356 -894 0
-891 -1357 895 0
891 1357 -895 0
-891 -1358 896 0
891 1358 -896 0
-891 -1359 897 0
891 1359 -897 0
-891 -1360 898 0
891 1360 -898 0
-891 -1361 899 0
891 1361 -899 0
-891 -1362 900 0
891 1362 -900 0
-891 -1363 901 0
891 1363 -901 0
-891 -1364 902 0
891 1364 -902 0
-891 -1365 903 0
891 1365 -903 0
-892 -1366 893 0
892 1366 -893 0
-892 -1367 894 0
892 1367 -894 0
-892 -1368 895 0
892 1368 -895 0
-892 -1369 896 0
892 1369 -896 0
-892 -1370 897 0
892 1370 -897 0
-892 -1371 898 0
892 1371 -898 0
-892 -1372 899 0
892 1372 -899 0
-892 -1373 900 0
892 1373 -900 0
-892 -1374 901 0
892 1374 -901 0
-892 -1375 902 0
892 1375 -902 0
-892 -1376 903 0
892 1376 -903 0
-893 -1377 894 0
893 1377 -894 0
-893 -1378 895 0
893 1378 -895 0
-893 -1379 896 0
893 1379 -896 0
-893 -1380 897 0
893 1380 -897 0
-893 -1381 898 0
893 1381 -898 0
-893 -1382 899 0
893 1382 -899 0
-893 -1383 900 0
893 1383 -900 0
-893 -1384 901 0
893 1384 -901 0
-893 -1385 902 0
893 1385 -902 0
-893 -1386 903 0
893 1386 -903 0
-894 -1387 895 0
894 1387 -895 0
-894 -1388 896 0
894 1388 -896 0
-894 -1389 897 0
894 1389 -897 0
-894 -1390 898 0
894 1390 -898 0
-894 -1391 899 0
894 1391 -899 0
-894 -1392 900 0
894 1392 -900 0
-894 -1393 901 0
894 1393 -901 0
-894 -1394 902 0
894 1394 -902 0
-894 -1395 903 0
894 1395 -903 0
-895 -1396 896 0
895 1396 -896 0
-895 -1397 897 0
895 1397 -897 0
-895 -1398 898 0
895 1398 -898 0
-895 -1399 899 0
895 1399 -899 0
-895 -1400 900 0
895 1400 -900 0
-895 -1401 901 0
895 1401 -901 0
-895 -1402 902 0
895 1402 -902 0
-895 -1403 903 0
895 1403 -903 0
-896 -1404 897 0
896 1404 -897 0
-896 -1405 898 0
896 1405 -898 0
-896 -1406 899 0
896 1406 -899 0
-896 -1407 900 0
896 1407 -900 0
-896 -1408 901 0
896 1408 -901 0
-896 -1409 902 0
896 1409 -902 0
-896 -1410 903 0
896 1410 -903 0
-897 -1411 898 0
897 1411 -898 0
-897 -1412 899 0
897 1412 -899 0
-897 -1413 900 0
897 1413 -900 0
-897 -1414 901 0
897 1414 -901 0
-897 -1415 902 0
897 1415 -902 0
-897 -1416 903 0
897 1416 -903 0
-898 -1417 899 0
898 1417 -899 0
-898 -1418 900 0
898 1418 -900 0
-898 -1419 901 0
898 1419 -901 0
-898 -1420 902 0
898 1420 -902 0
-898 -1421 903 0
898 1421 -903 0
-899 -1422 900 0
899 1422 -900 0
-899 -1423 901 0
899 1423 -901 0
-899 -1424 902 0
899 1424 -902 0
-899 -1425 903 0
899 1425 -903 0
-900 -1426 901 0
900 1426 -901 0
-900 -1427 902 0
900 1427 -902 0
-900 -1428 903 0
900 1428 -903 0
-901 -1429 902 0
901 1429 -902 0
-901 -1430 903 0
901 1430 -903 0
-902 -1431 903 0
902 1431 -903 0
-904 -936 905 0
904 936 -905 0
-904 -937 906 0
904 937 -906 0
-904 -938 907 0
904 938 -907 0
-904 -939 908 0
904 939 -908 0
-904 -940 909 0
904 940 -909 0
-904 -941 910 0
904 941 -910 0
-904 -942 911 0
904 942 -911 0
-904 -943 912 0
904 943 -912 0
-904 -944 913 0
904 944 -913 0
-904 -945 914 0
904 945 -914 0
-904 -946 915 0
904 946 -915 0
-904 -947 916 0
904 947 -916 0
-904 -948 917 0
904 948 -917 0
-904 -949 918 0
904 949 -918 0
-904 -950 919 0
904 950 -919 0
-904 -951 920 0
904 951 -920 0
-904 -952 921 0
904 952 -921 0
-904 -953 922 0
904 953 -922 0
-904 -954 923 0
904 954 -923 0
-904 -955 924 0
904 955 -924 0
-904 -956 925 0
904 956 -925 0
-904 -957 926 0
904 957 -926 0
-904 -958 927 0
904 958 -927 0
-904 -959 928 0
904 959 -928 0
-904 -960 929 0
904 960 -929 0
-904 -961 930 0
904 961 -930 0
-904 -962 931 0
904 962 -931 0
-904 -963 932 0
904 963 -932 0
-904 -964 933 0
904 964 -933 0
-904 -965 934 0
904 965 -934 0
-904 -966 935 0
904 966 -935 0
-905 -967 906 0
905 967 -906 0
-905 -968 907 0
905 968 -907 0
-905 -969 908 0
905 969 -908 0
-905 -970 909 0
905 970 -909 0
-905 -971 910 0
905 971 -910 0
-905 -972 911 0
905 972 -911 0
-905 -973 912 0
905 973 -912 0
-905 -974 913 0
905 974 -913 0
-905 -975 914 0
905 975 -914 0
-905 -976 915 0
905 976 -915 0
-905 -977 916 0
905 977 -916 0
-905 -978 917 0
905 978 -917 0
-905 -979 918 0
905 979 -918 0
-905 -980 919 0
905 980 -919 0
-905 -981 920 0
905 981 -920 0
-905 -982 921 0
905 982 -921 0
-905 -983 922 0
905 983 -922 0
-905 -984 923 0
905 984 -923 0
-905 -985 924 0
905 985 -924 0
-905 -986 925 0
905 986 -925 0
-905 -987 926 0
905 987 -926 0
-905 -988 927 0
905 988 -927 0
-905 -989 928 0
905 989 -928 0
-905 -990 929 0
905 990 -929 0
-905 -991 930 0
905 991 -930 0
-905 -992 931 0
905 992 -931 0
-905 -993 932 0
905 993 -932 0
-905 -994 933 0
905 994 -933 0
-905 -995 934 0
905 995 -934 0
-905 -996 935 0
905 996 -935 0
-906 -997 907 0
906 997 -907 0
-906 -998 908 0
906 998 -908 0
-906 -999 909 0
906 999 -909 0
-906 -1000 910 0
906 1000 -910 0
-906 -1001 911 0
906 1001 -911 0
-906 -1002 912 0
906 1002 -912 0
-906 -1003 913 0
906 1003 -913 0
-906 -1004 914 0
906 1004 -914 0
-906 -1005 915 0
906 1005 -915 0
-906 -1006 916 0
906 1006 -916 0
-906 -1007 917 0
906 1007 -917 0
-906 -1008 918 0
906 1008 -918 0
-906 -1009 919 0
906 1009 -919 0
-906 -1010 920 0
906 1010 -920 0
-906 -1011 921 0
906 1011 -921 0
-906 -1012 922 0
906 1012 -922 0
-906 -1013 923 0
906 1013 -923 0
-906 -1014 924 0
906 1014 -924 0
-906 -1015 925 0
906 1015 -925 0
-906 -1016 926 0
906 1016 -926 0
-906 -1017 927 0
906 1017 -927 0
-906 -1018 928 0
906 1018 -928 0
-906 -1019 929 0
906 1019 -929 0
-906 -1020 930 0
906 1020 -930 0
-906 -1021 931 0
906 1021 -931 0
-906 -1022 932 0
906 1022 -932 0
-906 -1023 933 0
906 1023 -933 0
-906 -1024 934 0
906 1024 -934 0
-906 -1025 935 0
906 1025 -935 0
-907 -1026 908 0
907 1026 -908 0
-907 -1027 909 0
907 1027 -909 0
-907 -1028 910 0
907 1028 -910 0
-907 -1029 911 0
907 1029 -911 0
-907 -1030 912 0
907 1030 -912 0
-907 -1031 913 0
907 1031 -913 0
-907 -1032 914 0
907 1032 -914 0
-907 -1033 915 0
907 1033 -915 0
-907 -1034 916 0
907 1034 -916 0
-907 -1035 917 0
907 1035 -917 0
-907 -1036 918 0
907 1036 -918 0
-907 -1037 919 0
907 1037 -919 0
-907 -1038 920 0
907 1038 -920 0
-907 -1039 921 0
907 1039 -921 0
-907 -1040 922 0
907 1040 -922 0
-907 -1041 923 0
907 1041 -923 0
-907 -1042 924 0
907 1042 -924 0
-907 -1043 925 0
907 1043 -925 0
-907 -1044 926 0
907 1044 -926 0
-907 -1045 927 0
907 1045 -927 0
-907 -1046 928 0
907 1046 -928 0
-907 -1047 929 0
907 1047 -929 0
-907 -1048 930 0
907 1048 -930 0
-907 -1049 931 0
907 1049 -931 0
-907 -1050 932 0
907 1050 -932 0
-907 -1051 933 0
907 1051 -933 0
-907 -1052 934 0
907 1052 -934 0
-907 -1053 935 0
907 1053 -935 0
-908 -1054 909 0
908 1054 -909 0
-908 -1055 910 0
908 1055 -910 0
-908 -1056 911 0
908 1056 -911 0
-908 -1057 912 0
908 1057 -912 0
-908 -1058 913 0
908 1058 -913 0
-908 -1059 914 0
908 1059 -914 0
-908 -1060 915 0
908 1060 -915 0
-908 -1061 916 0
908 1061 -916 0
-908 -1062 917 0
908 1062 -917 0
-908 -1063 918 0
908 1063 -918 0
-908 -1064 919 0
908 1064 -919 0
-908 -1065 920 0
908 1065 -920 0
-908 -1066 921 0
908 1066 -921 0
-908 -1067 922 0
908 1067 -922 0
-908 -1068 923 0
908 1068 -923 0
-908 -1069 924 0
908 1069 -924 0
-908 -1070 925 0
908 1070 -925 0
-908 -1071 926 0
908 1071 -926 0
-908 -1072 927 0
908 1072 -927 0
-908 -1073 928 0
908 1073 -928 0
-908 -1074 929 0
908 1074 -929 0
-908 -1075 930 0
908 1075 -930 0
-908 -1076 931 0
908 1076 -931 0
-908 -1077 932 0
908 1077 -932 0
-908 -1078 933 0
908 1078 -933 0
-908 -1079 934 0
908 1079 -934 0
-908 -1080 935 0
908 1080 -935 0
-909 -1081 910 0
909 1081 -910 0
-909 -1082 911 0
909 1082 -911 0
-909 -1083 912 0
909 1083 -912 0
-909 -1084 913 0
909 1084 -913 0
-909 -1085 914 0
909 1085 -914 0
-909 -1086 915 0
909 1086 -915 0
-909 -1087 916 0
909 1087 -916 0
-909 -1088 917 0
909 1088 -917 0
-909 -1089 918 0
909 1089 -918 0
-909 -1090 919 0
909 1090 -919 0
-909 -1091 920 0
909 1091 -920 0
-909 -1092 921 0
909 1092 -921 0
-909 -1093 922 0
909 1093 -922 0
-909 -1094 923 0
909 1094 -923 0
-909 -1095 924 0
909 1095 -924 0
-909 -1096 925 0
909 1096 -925 0
-909 -1097 926 0
909 1097 -926 0
-909 -1098 927 0
909 1098 -927 0
-909 -1099 928 0
909 1099 -928 0
-909 -1100 929 0
909 1100 -929 0
-909 -1101 930 0
909 1101 -930 0
-909 -1102 931 0
909 1102 -931 0
-909 -1103 932 0
909 1103 -932 0
-909 -1104 933 0
909 1104 -933 0
-909 -1105 934 0
909 1105 -934 0
-909 -1106 935 0
909 1106 -935 0
-910 -1107 911 0
910 1107 -911 0
-910 -1108 912 0
910 1108 -912 0
-910 -1109 913 0
910 1109 -913 0
-910 -1110 914 0
910 1110 -914 0
-910 -1111 915 0
910 1111 -915 0
-910 -1112 916 0
910 1112 -916 0
-910 -1113 917 0
910 1113 -917 0
-910 -1114 918 0
910 1114 -918 0
-910 -1115 919 0
910 1115 -919 0
-910 -1116 920 0
910 1116 -920 0
-910 -1117 921 0
910 1117 -921 0
-910 -1118 922 0
910 1118 -922 0
-910 -1119 923 0
910 1119 -923 0
-910 -1120 924 0
910 1120 -924 0
-910 -1121 925 0
910 1121 -925 0
-910 -1122 926 0
910 1122 -926 0
-910 -1123 927 0
910 1123 -927 0
-910 -1124 928 0
910 1124 -928 0
-910 -1125 929 0
910 1125 -929 0
-910 -1126 930 0
910 1126 -930 0
-910 -1127 931 0
910 1127 -931 0
-910 -1128 932 0
910 1128 -932 0
-910 -1129 933 0
910 1129 -933 0
-910 -1130 934 0
910 1130 -934 0
-910 -1131 935 0
910 1131 -935 0
-911 -1132 912 0
911 1132 -912 0
-911 -1133 913 0
911 1133 -913 0
-911 -1134 914 0
911 1134 -914 0
-911 -1135 915 0
911 1135 -915 0
-911 -1136 916 0
911 1136 -916 0
-911 -1137 917 0
911 1137 -917 0
-911 -1138 918 0
911 1138 -918 0
-911 -1139 919 0
911 1139 -919 0
-911 -1140 920 0
911 1140 -920 0
-911 -1141 921 0
911 1141 -921 0
-911 -1142 922 0
911 1142 -922 0
-911 -1143 923 0
911 1143 -923 0
-911 -1144 924 0
911 1144 -924 0
-911 -1145 925 0
911 1145 -925 0
-911 -1146 926 0
911 1146 -926 0
-911 -1147 927 0
911 1147 -927 0
-911 -1148 928 0
911 1148 -928 0
-911 -1149 929 0
911 1149 -929 0
-911 -1150 930 0
911 1150 -930 0
-911 -1151 931 0
911 1151 -931 0
-911 -1152 932 0
911 1152 -932 0
-911 -1153 933 0
911 1153 -933 0
-911 -1154 934 0
911 1154 -934 0
-911 -1155 935 0
911 1155 -935 0
-912 -1156 913 0
912 1156 -913 0
-912 -1157 914 0
912 1157 -914 0
-912 -1158 915 0
912 1158 -915 0
-912 -1159 916 0
912 1159 -916 0
-912 -1160 917 0
912 1160 -917 0
-912 -1161 918 0
912 1161 -918 0
-912 -1162 919 0
912 1162 -919 0
-912 -1163 920 0
912 1163 -920 0
-912 -1164 921 0
912 1164 -921 0
-912 -1165 922 0
912 1165 -922 0
-912 -1166 923 0
912 1166 -923 0
-912 -1167 924 0
912 1167 -924 0
-912 -1168 925 0
912 1168 -925 0
-912 -1169 926 0
912 1169 -926 0
-912 -1170 927 0
912 1170 -927 0
-912 -1171 928 0
912 1171 -928 0
-912 -1172 929 0
912 1172 -929 0
-912 -1173 930 0
912 1173 -930 0
-912 -1174 931 0
912 1174 -931 0
-912 -1175 932 0
912 1175 -932 0
-912 -1176 933 0
912 1176 -933 0
-912 -1177 934 0
912 1177 -934 0
-912 -1178 935 0
912 1178 -935 0
-913 -1179 914 0
913 1179 -914 0
-913 -1180 915 0
913 1180 -915 0
-913 -1181 916 0
913 1181 -916 0
-913 -1182 917 0
913 1182 -917 0
-913 -1183 918 0
913 1183 -918 0
-913 -1184 919 0
913 1184 -919 0
-913 -1185 920 0
913 1185 -920 0
-913 -1186 921 0
913 1186 -921 0
-913 -1187 922 0
913 1187 -922 0
-913 -1188 923 0
913 1188 -923 0
-913 -1189 924 0
913 1189 -924 0
-913 -1190 925 0
913 1190 -925 0
-913 -1191 926 0
913 1191 -926 0
-913 -1192 927 0
913 1192 -927 0
-913 -1193 928 0
913 1193 -928 0
-913 -1194 929 0
913 1194 -929 0
-913 -1195 930 0
913 1195 -930 0
-913 -1196 931 0
913 1196 -931 0
-913 -1197 932 0
913 1197 -932 0
-913 -1198 933 0
913 1198 -933 0
-913 -1199 934 0
913 1199 -934 0
-913 -1200 935 0
913 1200 -935 0
-914 -1201 915 0
914 1201 -915 0
-914 -1202 916 0
914 1202 -916 0
-914 -1203 917 0
914 1203 -917 0
-914 -1204 918 0
914 1204 -918 0
-914 -1205 919 0
914 1205 -919 0
-914 -1206 920 0
914 1206 -920 0
-914 -1207 921 0
914 1207 -921 0
-914 -1208 922 0
914 1208 -922 0
-914 -1209 923 0
914 1209 -923 0
-914 -1210 924 0
914 1210 -924 0
-914 -1211 925 0
914 1211 -925 0
-914 -1212 926 0
914 1212 -926 0
-914 -1213 927 0
914 1213 -927 0
-914 -1214 928 0
914 1214 -928 0
-914 -1215 929 0
914 1215 -929 0
-914 -1216 930 0
914 1216 -930 0
-914 -1217 931 0
914 1217 -931 0
-914 -1218 932 0
914 1218 -932 0
-914 -1219 933 0
914 1219 -933 0
-914 -1220 934 0
914 1220 -934 0
-914 -1221 935 0
914 1221 -935 0
-915 -1222 916 0
915 1222 -916 0
-915 -1223 917 0
915 1223 -917 0
-915 -1224 918 0
915 1224 -918 0
-915 -1225 919 0
915 1225 -919 0
-915 -1226 920 0
915 1226 -920 0
-915 -1227 921 0
915 1227 -921 0
-915 -1228 922 0
915 1228 -922 0
-915 -1229 923 0
915 1229 -923 0
-915 -1230 924 0
915 1230 -924 0
-915 -1231 925 0
915 1231 -925 0
-915 -1232 926 0
915 1232 -926 0
-915 -1233 927 0
915 1233 -927 0
-915 -1234 928 0
915 1234 -928 0
-915 -1235 929 0
915 1235 -929 0
-915 -1236 930 0
915 1236 -930 0
-915 -1237 931 0
915 1237 -931 0
-915 -1238 932 0
915 1238 -932 0
-915 -1239 933 0
915 1239 -933 0
-915 -1240 934 0
915 1240 -934 0
-915 -1241 935 0
915 1241 -935 0
-916 -1242 917 0
916 1242 -917 0
-916 -1243 918 0
916 1243 -918 0
-916 -1244 919 0
916 1244 -919 0
-916 -1245 920 0
916 1245 -920 0
-916 -1246 921 0
916 1246 -921 0
-916 -1247 922 0
916 1247 -922 0
-916 -1248 923 0
916 1248 -923 0
-916 -1249 924 0
916 1249 -924 0
-916 -1250 925 0
916 1250 -925 0
-916 -1251 926 0
916 1251 -926 0
-916 -1252 927 0
916 1252 -927 0
-916 -1253 928 0
916 1253 -928 0
-916 -1254 929 0
916 1254 -929 0
-916 -1255 930 0
916 1255 -930 0
-916 -1256 931 0
916 1256 -931 0
-916 -1257 932 0
916 1257 -932 0
-916 -1258 933 0
916 1258 -933 0
-916 -1259 934 0
916 1259 -934 0
-916 -1260 935 0
916 1260 -935 0
-917 -1261 918 0
917 1261 -918 0
-917 -1262 919 0
917 1262 -919 0
-917 -1263 920 0
917 1263 -920 0
-917 -1264 921 0
917 1264 -921 0
-917 -1265 922 0
917 1265 -922 0
-917 -1266 923 0
917 1266 -923 0
-917 -1267 924 0
917 1267 -924 0
-917 -1268 925 0
917 1268 -925 0
-917 -1269 926 0
917 1269 -926 0
-917 -1270 927 0
917 1270 -927 0
-917 -1271 928 0
917 1271 -928 0
-917 -1272 929 0
917 1272 -929 0
-917 -1273 930 0
917 1273 -930 0
-917 -1274 931 0
917 1274 -931 0
-917 -1275 932 0
917 1275 -932 0
-917 -1276 933 0
917 1276 -933 0
-917 -1277 934 0
917 1277 -934 0
-917 -1278 935 0
917 1278 -935 0
-918 -1279 919 0
918 1279 -919 0
-918 -1280 920 0
918 1280 -920 0
-918 -1281 921 0
918 1281 -921 0
-918 -1282 922 0
918 1282 -922 0
-918 -1283 923 0
918 1283 -923 0
-918 -1284 924 0
918 1284 -924 0
-918 -1285 925 0
918 1285 -925 0
-918 -1286 926 0
918 1286 -926 0
-918 -1287 927 0
918 1287 -927 0
-918 -1288 928 0
918 1288 -928 0
-918 -1289 929 0
918 1289 -929 0
-918 -1290 930 0
918 1290 -930 0
-918 -1291 931 0
918 1291 -931 0
-918 -1292 932 0
918 1292 -932 0
-918 -1293 933 0
918 1293 -933 0
-918 -1294 934 0
918 1294 -934 0
-918 -1295 935 0
918 1295 -935 0
-919 -1296 920 0
919 1296 -920 0
-919 -1297 921 0
919 1297 -921 0
-919 -1298 922 0
919 1298 -922 0
-919 -1299 923 0
919 1299 -923 0
-919 -1300 924 0
919 1300 -924 0
-919 -1301 925 0
919 1301 -925 0
-919 -1302 926 0
919 1302 -926 0
-919 -1303 927 0
919 1303 -927 0
-919 -1304 928 0
919 1304 -928 0
-919 -1305 929 0
919 1305 -929 0
-919 -1306 930 0
919 1306 -930 0
-919 -1307 931 0
919 1307 -931 0
-919 -1308 932 0
919 1308 -932 0
-919 -1309 933 0
919 1309 -933 0
-919 -1310 934 0
919 1310 -934 0
-919 -1311 935 0
919 1311 -935 0
-920 -1312 921 0
920 1312 -921 0
-920 -1313 922 0
920 1313 -922 0
-920 -1314 923 0
920 1314 -923 0
-920 -1315 924 0
920 1315 -924 0
-920 -1316 925 0
920 1316 -925 0
-920 -1317 926 0
920 1317 -926 0
-920 -1318 927 0
920 1318 -927 0
-920 -1319 928 0
920 1319 -928 0
-920 -1320 929 0
920 1320 -929 0
-920 -1321 930 0
920 1321 -930 0
-920 -1322 931 0
920 1322 -931 0
-920 -1323 932 0
920 1323 -932 0
-920 -1324 933 0
920 1324 -933 0
-920 -1325 934 0
920 1325 -934 0
-920 -1326 935 0
920 1326 -935 0
-921 -1327 922 0
921 1327 -922 0
-921 -1328 923 0
921 1328 -923 0
-921 -1329 924 0
921 1329 -924 0
-921 -1330 925 0
921 1330 -925 0
-921 -1331 926 0
921 1331 -926 0
-921 -1332 927 0
921 1332 -927 0
-921 -1333 928 0
921 1333 -928 0
-921 -1334 929 0
921 1334 -929 0
-921 -1335 930 0
921 1335 -930 0
-921 -1336 931 0
921 1336 -931 0
-921 -1337 932 0
921 1337 -932 0
-921 -1338 933 0
921 1338 -933 0
-921 -1339 934 0
921 1339 -934 0
-921 -1340 935 0
921 1340 -935 0
-922 -1341 923 0
922 1341 -923 0
-922 -1342 924 0
922 1342 -924 0
-922 -1343 925 0
922 1343 -925 0
-922 -1344 926 0
922 1344 -926 0
-922 -1345 927 0
922 1345 -927 0
-922 -1346 928 0
922 1346 -928 0
-922 -1347 929 0
922 1347 -929 0
-922 -1348 930 0
922 1348 -930 0
-922 -1349 931 0
922 1349 -931 0
-922 -1350 932 0
922 1350 -932 0
-922 -1351 933 0
922 1351 -933 0
-922 -1352 934 0
922 1352 -934 0
-922 -1353 935 0
922 1353 -935 0
-923 -1354 924 0
923 1354 -924 0
-923 -1355 925 0
923 1355 -925 0
-923 -1356 926 0
923 1356 -926 0
-923 -1357 927 0
923 1357 -927 0
-923 -1358 928 0
923 1358 -928 0
-923 -1359 929 0
923 1359 -929 0
-923 -1360 930 0
923 1360 -930 0
-923 -1361 931 0
923 1361 -931 0
-923 -1362 932 0
923 1362 -932 0
-923 -1363 933 0
923 1363 -933 0
-923 -1364 934 0
923 1364 -934 0
-923 -1365 935 0
923 1365 -935 0
-924 -1366 925 0
924 1366 -925 0
-924 -1367 926 0
924 1367 -926 0
-924 -1368 927 0
924 1368 -927 0
-924 -1369 928 0
924 1369 -928 0
-924 -1370 929 0
924 1370 -929 0
-924 -1371 930 0
924 1371 -930 0
-924 -1372 931 0
924 1372 -931 0
-924 -1373 932 0
924 1373 -932 0
-924 -1374 933 0
924 1374 -933 0
-924 -1375 934 0
924 1375 -934 0
-924 -1376 935 0
924 1376 -935 0
-925 -1377 926 0
925 1377 -926 0
-925 -1378 927 0
925 1378 -927 0
-925 -1379 928 0
925 1379 -928 0
-925 -1380 929 0
925 1380 -929 0
-925 -1381 930 0
925 1381 -930 0
-925 -1382 931 0
925 1382 -931 0
-925 -1383 932 0
925 1383 -932 0
-925 -1384 933 0
925 1384 -933 0
-925 -1385 934 0
925 1385 -934 0
-925 -1386 935 0
925 1386 -935 0
-926 -1387 927 0
926 1387 -927 0
-926 -1388 928 0
926 1388 -928 0
-926 -1389 929 0
926 1389 -929 0
-926 -1390 930 0
926 1390 -930 0
-926 -1391 931 0
926 1391 -931 0
-926 -1392 932 0
926 1392 -932 0
-926 -1393 933 0
926 1393 -933 0
-926 -1394 934 0
926 1394 -934 0
-926 -1395 935 0
926 1395 -935 0
-927 -1396 928 0
927 1396 -928 0
-927 -1397 929 0
927 1397 -929 0
-927 -1398 930 0
927 1398 -930 0
-927 -1399 931 0
927 1399 -931 0
-927 -1400 932 0
927 1400 -932 0
-927 -1401 933 0
927 1401 -933 0
-927 -1402 934 0
927 1402 -934 0
-927 -1403 935 0
927 1403 -935 0
-928 -1404 929 0
928 1404 -929 0
-928 -1405 930 0
928 1405 -930 0
-928 -1406 931 0
928 1406 -931 0
-928 -1407 932 0
928 1407 -932 0
-928 -1408 933 0
928 1408 -933 0
-928 -1409 934 0
928 1409 -934 0
-928 -1410 935 0
928 1410 -935 0
-929 -1411 930 0
929 1411 -930 0
-929 -1412 931 0
929 1412 -931 0
-929 -1413 932 0
929 1413 -932 0
-929 -1414 933 0
929 1414 -933 0
-929 -1415 934 0
929 1415 -934 0
-929 -1416 935 0
929 1416 -935 0
-930 -1417 931 0
930 1417 -931 0
-930 -1418 932 0
930 1418 -932 0
-930 -1419 933 0
930 1419 -933 0
-930 -1420 934 0
930 1420 -934 0
-930 -1421 935 0
930 1421 -935 0
-931 -1422 932 0
931 1422 -932 0
-931 -1423 933 0
931 1423 -933 0
-931 -1424 934 0
931 1424 -934 0
-931 -1425 935 0
931 1425 -935 0
-932 -1426 933 0
932 1426 -933 0
-932 -1427 934 0
932 1427 -934 0
-932 -1428 935 0
932 1428 -935 0
-933 -1429 934 0
933 1429 -934 0
-933 -1430 935 0
933 1430 -935 0
-934 -1431 935 0
934 1431 -935 0
-936 -967 937 0
936 967 -937 0
-936 -968 938 0
936 968 -938 0
-936 -969 939 0
936 969 -939 0
-936 -970 940 0
936 970 -940 0
-936 -971 941 0
936 971 -941 0
-936 -972 942 0
936 972 -942 0
-936 -973 943 0
936 973 -943 0
-936 -974 944 0
936 974 -944 0
-936 -975 945 0
936 975 -945 0
-936 -976 946 0
936 976 -946 0
-936 -977 947 0
936 977 -947 0
-936 -978 948 0
936 978 -948 0
-936 -979 949 0
936 979 -949 0
-936 -980 950 0
936 980 -950 0
-936 -981 951 0
936 981 -951 0
-936 -982 952 0
936 982 -952 0
-936 -983 953 0
936 983 -953 0
-936 -984 954 0
936 984 -954 0
-936 -985 955 0
936 985 -955 0
-936 -986 956 0
936 986 -956 0
-936 -987 957 0
936 987 -957 0
-936 -988 958 0
936 988 -958 0
-936 -989 959 0
936 989 -959 0
-936 -990 960 0
936 990 -960 0
-936 -991 961 0
936 991 -961 0
-936 -992 962 0
936 992 -962 0
-936 -993 963 0
936 993 -963 0
-936 -994 964 0
936 994 -964 0
-936 -995 965 0
936 995 -965 0
-936 -996 966 0
936 996 -966 0
-937 -997 938 0
937 997 -938 0
-937 -998 939 0
937 998 -939 0
-937 -999 940 0
937 999 -940 0
-937 -1000 941 0
937 1000 -941 0
-937 -1001 942 0
937 1001 -942 0
-937 -1002 943 0
937 1002 -943 0
-937 -1003 944 0
937 1003 -944 0
-937 -1004 945 0
937 1004 -945 0
-937 -1005 946 0
937 1005 -946 0
-937 -1006 947 0
937 1006 -947 0
-937 -1007 948 0
937 1007 -948 0
-937 -1008 949 0
937 1008 -949 0
-937 -1009 950 0
937 1009 -950 0
-937 -1010 951 0
937 1010 -951 0
-937 -1011 952 0
937 1011 -952 0
-937 -1012 953 0
937 1012 -953 0
-937 -1013 954 0
937 1013 -954 0
-937 -1014 955 0
937 1014 -955 0
-937 -1015 956 0
937 1015 -956 0
-937 -1016 957 0
937 1016 -957 0
-937 -1017 958 0
937 1017 -958 0
-937 -1018 959 0
937 1018 -959 0
-937 -1019 960 0
937 1019 -960 0
-937 -1020 961 0
937 1020 -961 0
-937 -1021 962 0
937 1021 -962 0
-937 -1022 963 0
937 1022 -963 0
-937 -1023 964 0
937 1023 -964 0
-937 -1024 965 0
937 1024 -965 0
-937 -1025 966 0
937 1025 -966 0
-938 -1026 939 0
938 1026 -939 0
-938 -1027 940 0
938 1027 -940 0
-938 -1028 941 0
938 1028 -941 0
-938 -1029 942 0
938 1029 -942 0
-938 -1030 943 0
938 1030 -943 0
-938 -1031 944 0
938 1031 -944 0
-938 -1032 945 0
938 1032 -945 0
-938 -1033 946 0
938 1033 -946 0
-938 -1034 947 0
938 1034 -947 0
-938 -1035 948 0
938 1035 -948 0
-938 -1036 949 0
938 1036 -949 0
-938 -1037 950 0
938 1037 -950 0
-938 -1038 951 0
938 1038 -951 0
-938 -1039 952 0
938 1039 -952 0
-938 -1040 953 0
938 1040 -953 0
-938 -1041 954 0
938 1041 -954 0
-938 -1042 955 0
938 1042 -955 0
-938 -1043 956 0
938 1043 -956 0
-938 -1044 957 0
938 1044 -957 0
-938 -1045 958 0
938 1045 -958 0
-938 -1046 959 0
938 1046 -959 0
-938 -1047 960 0
938 1047 -960 0
-938 -1048 961 0
938 1048 -961 0
-938 -1049 962 0
938 1049 -962 0
-938 -1050 963 0
938 1050 -963 0
-938 -1051 964 0
938 1051 -964 0
-938 -1052 965 0
938 1052 -965 0
-938 -1053 966 0
938 1053 -966 0
-939 -1054 940 0
939 1054 -940 0
-939 -1055 941 0
939 1055 -941 0
-939 -1056 942 0
939 1056 -942 0
-939 -1057 943 0
939 1057 -943 0
-939 -1058 944 0
939 1058 -944 0
-939 -1059 945 0
939 1059 -945 0
-939 -1060 946 0
939 1060 -946 0
-939 -1061 947 0
939 1061 -947 0
-939 -1062 948 0
939 1062 -948 0
-939 -1063 949 0
939 1063 -949 0
-939 -1064 950 0
939 1064 -950 0
-939 -1065 951 0
939 1065 -951 0
-939 -1066 952 0
939 1066 -952 0
-939 -1067 953 0
939 1067 -953 0
-939 -1068 954 0
939 1068 -954 0
-939 -1069 955 0
939 1069 -955 0
-939 -1070 956 0
939 1070 -956 0
-939 -1071 957 0
939 1071 -957 0
-939 -1072 958 0
939 1072 -958 0
-939 -1073 959 0
939 1073 -959 0
-939 -1074 960 0
939 1074 -960 0
-939 -1075 961 0
939 1075 -961 0
-939 -1076 962 0
939 1076 -962 0
-939 -1077 963 0
939 1077 -963 0
-939 -1078 964 0
939 1078 -964 0
-939 -1079 965 0
939 1079 -965 0
-939 -1080 966 0
939 1080 -966 0
-940 -1081 941 0
940 1081 -941 0
-940 -1082 942 0
940 1082 -942 0
-940 -1083 943 0
940 1083 -943 0
-940 -1084 944 0
940 1084 -944 0
-940 -1085 945 0
940 1085 -945 0
-940 -1086 946 0
940 1086 -946 0
-940 -1087 947 0
940 1087 -947 0
-940 -1088 948 0
940 1088 -948 0
-940 -1089 949 0
940 1089 -949 0
-940 -1090 950 0
940 1090 -950 0
-940 -1091 951 0
940 1091 -951 0
-940 -1092 952 0
940 1092 -952 0
-940 -1093 953 0
940 1093 -953 0
-940 -1094 954 0
940 1094 -954 0
-940 -1095 955 0
940 1095 -955 0
-940 -1096 956 0
940 1096 -956 0
-940 -1097 957 0
940 1097 -957 0
-940 -1098 958 0
940 1098 -958 0
-940 -1099 959 0
940 1099 -959 0
-940 -1100 960 0
940 1100 -960 0
-940 -1101 961 0
940 1101 -961 0
-940 -1102 962 0
940 1102 -962 0
-940 -1103 963 0
940 1103 -963 0
-940 -1104 964 0
940 1104 -964 0
-940 -1105 965 0
940 1105 -965 0
-940 -1106 966 0
940 1106 -966 0
-941 -1107 942 0
941 1107 -942 0
-941 -1108 943 0
941 1108 -943 0
-941 -1109 944 0
941 1109 -944 0
-941 -1110 945 0
941 1110 -945 0
-941 -1111 946 0
941 1111 -946 0
-941 -1112 947 0
941 1112 -947 0
-941 -1113 948 0
941 1113 -948 0
-941 -1114 949 0
941 1114 -949 0
-941 -1115 950 0
941 1115 -950 0
-941 -1116 951 0
941 1116 -951 0
-941 -1117 952 0
941 1117 -952 0
-941 -1118 953 0
941 1118 -953 0
-941 -1119 954 0
941 1119 -954 0
-941 -1120 955 0
941 1120 -955 0
-941 -1121 956 0
941 1121 -956 0
-941 -1122 957 0
941 1122 -957 0
-941 -1123 958 0
941 1123 -958 0
-941 -1124 959 0
941 1124 -959 0
-941 -1125 960 0
941 1125 -960 0
-941 -1126 961 0
941 1126 -961 0
-941 -1127 962 0
941 1127 -962 0
-941 -1128 963 0
941 1128 -963 0
-941 -1129 964 0
941 1129 -964 0
-941 -1130 965 0
941 1130 -965 0
-941 -1131 966 0
941 1131 -966 0
-942 -1132 943 0
942 1132 -943 0
-942 -1133 944 0
942 1133 -944 0
-942 -1134 945 0
942 1134 -945 0
-942 -1135 946 0
942 1135 -946 0
-942 -1136 947 0
942 1136 -947 0
-942 -1137 948 0
942 1137 -948 0
-942 -1138 949 0
942 1138 -949 0
-942 -1139 950 0
942 1139 -950 0
-942 -1140 951 0
942 1140 -951 0
-942 -1141 952 0
942 1141 -952 0
-942 -1142 953 0
942 1142 -953 0
-942 -1143 954 0
942 1143 -954 0
-942 -1144 955 0
942 1144 -955 0
-942 -1145 956 0
942 1145 -956 0
-942 -1146 957 0
942 1146 -957 0
-942 -1147 958 0
942 1147 -958 0
-942 -1148 959 0
942 1148 -959 0
-942 -1149 960 0
942 1149 -960 0
-942 -1150 961 0
942 1150 -961 0
-942 -1151 962 0
942 1151 -962 0
-942 -1152 963 0
942 1152 -963 0
-942 -1153 964 0
942 1153 -964 0
-942 -1154 965 0
942 1154 -965 0
-942 -1155 966 0
942 1155 -966 0
-943 -1156 944 0
943 1156 -944 0
-943 -1157 945 0
943 1157 -945 0
-943 -1158 946 0
943 1158 -946 0
-943 -1159 947 0
943 1159 -947 0
-943 -1160 948 0
943 1160 -948 0
-943 -1161 949 0
943 1161 -949 0
-943 -1162 950 0
943 1162 -950 0
-943 -1163 951 0
943 1163 -951 0
-943 -1164 952 0
943 1164 -952 0
-943 -1165 953 0
943 1165 -953 0
-943 -1166 954 0
943 1166 -954 0
-943 -1167 955 0
943 1167 -955 0
-943 -1168 956 0
943 1168 -956 0
-943 -1169 957 0
943 1169 -957 0
-943 -1170 958 0
943 1170 -958 0
-943 -1171 959 0
943 1171 -959 0
-943 -1172 960 0
943 1172 -960 0
-943 -1173 961 0
943 1173 -961 0
-943 -1174 962 0
943 1174 -962 0
-943 -1175 963 0
943 1175 -963 0
-943 -1176 964 0
943 1176 -964 0
-943 -1177 965 0
943 1177 -965 0
-943 -1178 966 0
943 1178 -966 0
-944 -1179 945 0
944 1179 -945 0
-944 -1180 946 0
944 1180 -946 0
-944 -1181 947 0
944 1181 -947 0
-944 -1182 948 0
944 1182 -948 0
-944 -1183 949 0
944 1183 -949 0
-944 -1184 950 0
944 1184 -950 0
-944 -1185 951 0
944 1185 -951 0
-944 -1186 952 0
944 1186 -952 0
-944 -1187 953 0
944 1187 -953 0
-944 -1188 954 0
944 1188 -954 0
-944 -1189 955 0
944 1189 -955 0
-944 -1190 956 0
944 1190 -956 0
-944 -1191 957 0
944 1191 -957 0
-944 -1192 958 0
944 1192 -958 0
-944 -1193 959 0
944 1193 -959 0
-944 -1194 960 0
944 1194 -960 0
-944 -1195 961 0
944 1195 -961 0
-944 -1196 962 0
944 1196 -962 0
-944 -1197 963 0
944 1197 -963 0
-944 -1198 964 0
944 1198 -964 0
-944 -1199 965 0
944 1199 -965 0
-944 -1200 966 0
944 1200 -966 0
-945 -1201 946 0
945 1201 -946 0
-945 -1202 947 0
945 1202 -947 0
-945 -1203 948 0
945 1203 -948 0
-945 -1204 949 0
945 1204 -949 0
-945 -1205 950 0
945 1205 -950 0
-945 -1206 951 0
945 1206 -951 0
-945 -1207 952 0
945 1207 -952 0
-945 -1208 953 0
945 1208 -953 0
-945 -1209 954 0
945 1209 -954 0
-945 -1210 955 0
945 1210 -955 0
-945 -1211 956 0
945 1211 -956 0
-945 -1212 957 0
945 1212 -957 0
-945 -1213 958 0
945 1213 -958 0
-945 -1214 959 0
945 1214 -959 0
-945 -1215 960 0
945 1215 -960 0
-945 -1216 961 0
945 1216 -961 0
-945 -1217 962 0
945 1217 -962 0
-945 -1218 963 0
945 1218 -963 0
-945 -1219 964 0
945 1219 -964 0
-945 -1220 965 0
945 1220 -965 0
-945 -1221 966 0
945 1221 -966 0
-946 -1222 947 0
946 1222 -947 0
-946 -1223 948 0
946 1223 -948 0
-946 -1224 949 0
946 1224 -949 0
-946 -1225 950 0
946 1225 -950 0
-946 -1226 951 0
946 1226 -951 0
-946 -1227 952 0
946 1227 -952 0
-946 -1228 953 0
946 1228 -953 0
-946 -1229 954 0
946 1229 -954 0
-946 -1230 955 0
946 1230 -955 0
-946 -1231 956 0
946 1231 -956 0
-946 -1232 957 0
946 1232 -957 0
-946 -1233 958 0
946 1233 -958 0
-946 -1234 959 0
946 1234 -959 0
-946 -1235 960 0
946 1235 -960 0
-946 -1236 961 0
946 1236 -961 0
-946 -1237 962 0
946 1237 -962 0
-946 -1238 963 0
946 1238 -963 0
-946 -1239 964 0
946 1239 -964 0
-946 -1240 965 0
946 1240 -965 0
-946 -1241 966 0
946 1241 -966 0
-947 -1242 948 0
947 1242 -948 0
-947 -1243 949 0
947 1243 -949 0
-947 -1244 950 0
947 1244 -950 0
-947 -1245 951 0
947 1245 -951 0
-947 -1246 952 0
947 1246 -952 0
-947 -1247 953 0
947 1247 -953 0
-947 -1248 954 0
947 1248 -954 0
-947 -1249 955 0
947 1249 -955 0
-947 -1250 956 0
947 1250 -956 0
-947 -1251 957 0
947 1251 -957 0
-947 -1252 958 0
947 1252 -958 0
-947 -1253 959 0
947 1253 -959 0
-947 -1254 960 0
947 1254 -960 0
-947 -1255 961 0
947 1255 -961 0
-947 -1256 962 0
947 1256 -962 0
-947 -1257 963 0
947 1257 -963 0
-947 -1258 964 0
947 1258 -964 0
-947 -1259 965 0
947 1259 -965 0
-947 -1260 966 0
947 1260 -966 0
-948 -1261 949 0
948 1261 -949 0
-948 -1262 950 0
948 1262 -950 0
-948 -1263 951 0
948 1263 -951 0
-948 -1264 952 0
948 1264 -952 0
-948 -1265 953 0
948 1265 -953 0
-948 -1266 954 0
948 1266 -954 0
-948 -1267 955 0
948 1267 -955 0
-948 -1268 956 0
948 1268 -956 0
-948 -1269 957 0
948 1269 -957 0
-948 -1270 958 0
948 1270 -958 0
-948 -1271 959 0
948 1271 -959 0
-948 -1272 960 0
948 1272 -960 0
-948 -1273 961 0
948 1273 -961 0
-948 -1274 962 0
948 1274 -962 0
-948 -1275 963 0
948 1275 -963 0
-948 -1276 964 0
948 1276 -964 0
-948 -1277 965 0
948 1277 -965 0
-948 -1278 966 0
948 1278 -966 0
-949 -1279 950 0
949 1279 -950 0
-949 -1280 951 0
949 1280 -951 0
-949 -1281 952 0
949 1281 -952 0
-949 -1282 953 0
949 1282 -953 0
-949 -1283 954 0
949 1283 -954 0
-949 -1284 955 0
949 1284 -955 0
-949 -1285 956 0
949 1285 -956 0
-949 -1286 957 0
949 1286 -957 0
-949 -1287 958 0
949 1287 -958 0
-949 -1288 959 0
949 1288 -959 0
-949 -1289 960 0
949 1289 -960 0
-949 -1290 961 0
949 1290 -961 0
-949 -1291 962 0
949 1291 -962 0
-949 -1292 963 0
949 1292 -963 0
-949 -1293 964 0
949 1293 -964 0
-949 -1294 965 0
949 1294 -965 0
-949 -1295 966 0
949 1295 -966 0
-950 -1296 951 0
950 1296 -951 0
-950 -1297 952 0
950 1297 -952 0
-950 -1298 953 0
950 1298 -953 0
-950 -1299 954 0
950 1299 -954 0
-950 -1300 955 0
950 1300 -955 0
-950 -1301 956 0
950 1301 -956 0
-950 -1302 957 0
950 1302 -957 0
-950 -1303 958 0
950 1303 -958 0
-950 -1304 959 0
950 1304 -959 0
-950 -1305 960 0
950 1305 -960 0
-950 -1306 961 0
950 1306 -961 0
-950 -1307 962 0
950 1307 -962 0
-950 -1308 963 0
950 1308 -963 0
-950 -1309 964 0
950 1309 -964 0
-950 -1310 965 0
950 1310 -965 0
-950 -1311 966 0
950 1311 -966 0
-951 -1312 952 0
951 1312 -952 0
-951 -1313 953 0
951 1313 -953 0
-951 -1314 954 0
951 1314 -954 0
-951 -1315 955 0
951 1315 -955 0
-951 -1316 956 0
951 1316 -956 0
-951 -1317 957 0
951 1317 -957 0
-951 -1318 958 0
951 1318 -958 0
-951 -1319 959 0
951 1319 -959 0
-951 -1320 960 0
951 1320 -960 0
-951 -1321 961 0
951 1321 -961 0
-951 -1322 962 0
951 1322 -962 0
-951 -1323 963 0
951 1323 -963 0
-951 -1324 964 0
951 1324 -964 0
-951 -1325 965 0
951 1325 -965 0
-951 -1326 966 0
951 1326 -966 0
-952 -1327 953 0
952 1327 -953 0
-952 -1328 954 0
952 1328 -954 0
-952 -1329 955 0
952 1329 -955 0
-952 -1330 956 0
952 1330 -956 0
-952 -1331 957 0
952 1331 -957 0
-952 -1332 958 0
952 1332 -958 0
-952 -1333 959 0
952 1333 -959 0
-952 -1334 960 0
952 1334 -960 0
-952 -1335 961 0
952 1335 -961 0
-952 -1336 962 0
952 1336 -962 0
-952 -1337 963 0
952 1337 -963 0
-952 -1338 964 0
952 1338 -964 0
-952 -1339 965 0
952 1339 -965 0
-952 -1340 966 0
952 1340 -966 0
-953 -1341 954 0
953 1341 -954 0
-953 -1342 955 0
953 1342 -955 0
-953 -1343 956 0
953 1343 -956 0
-953 -1344 957 0
953 1344 -957 0
-953 -1345 958 0
953 1345 -958 0
-953 -1346 959 0
953 1346 -959 0
-953 -1347 960 0
953 1347 -960 0
-953 -1348 961 0
953 1348 -961 0
-953 -1349 962 0
953 1349 -962 0
-953 -1350 963 0
953 1350 -963 0
-953 -1351 964 0
953 1351 -964 0
-953 -1352 965 0
953 1352 -965 0
-953 -1353 966 0
953 1353 -966 0
-954 -1354 955 0
954 1354 -955 0
-954 -1355 956 0
954 1355 -956 0
-954 -1356 957 0
954 1356 -957 0
-954 -1357 958 0
954 1357 -958 0
-954 -1358 959 0
954 1358 -959 0
-954 -1359 960 0
954 1359 -960 0
-954 -1360 961 0
954 1360 -961 0
-954 -1361 962 0
954 1361 -962 0
-954 -1362 963 0
954 1362 -963 0
-954 -1363 964 0
954 1363 -964 0
-954 -1364 965 0
954 1364 -965 0
-954 -1365 966 0
954 1365 -966 0
-955 -1366 956 0
955 1366 -956 0
-955 -1367 957 0
955 1367 -957 0
-955 -1368 958 0
955 1368 -958 0
-955 -1369 959 0
955 1369 -959 0
-955 -1370 960 0
955 1370 -960 0
-955 -1371 961 0
955 1371 -961 0
-955 -1372 962 0
955 1372 -962 0
-955 -1373 963 0
955 1373 -963 0
-955 -1374 964 0
955 1374 -964 0
-955 -1375 965 0
955 1375 -965 0
-955 -1376 966 0
955 1376 -966 0
-956 -1377 957 0
956 1377 -957 0
-956 -1378 958 0
956 1378 -958 0
-956 -1379 959 0
956 1379 -959 0
-956 -1380 960 0
956 1380 -960 0
-956 -1381 961 0
956 1381 -961 0
-956 -1382 962 0
956 1382 -962 0
-956 -1383 963 0
956 1383 -963 0
-956 -1384 964 0
956 1384 -964 0
-956 -1385 965 0
956 1385 -965 0
-956 -1386 966 0
956 1386 -966 0
-957 -1387 958 0
957 1387 -958 0
-957 -1388 959 0
957 1388 -959 0
-957 -1389 960 0
957 1389 -960 0
-957 -1390 961 0
957 1390 -961 0
-957 -1391 962 0
957 1391 -962 0
-957 -1392 963 0
957 1392 -963 0
-957 -1393 964 0
957 1393 -964 0
-957 -1394 965 0
957 1394 -965 0
-957 -1395 966 0
957 1395 -966 0
-958 -1396 959 0
958 1396 -959 0
-958 -1397 960 0
958 1397 -960 0
-958 -1398 961 0
958 1398 -961 0
-958 -1399 962 0
958 1399 -962 0
-958 -1400 963 0
958 1400 -963 0
-958 -1401 964 0
958 1401 -964 0
-958 -1402 965 0
958 1402 -965 0
-958 -1403 966 0
958 1403 -966 0
-959 -1404 960 0
959 1404 -960 0
-959 -1405 961 0
959 1405 -961 0
-959 -1406 962 0
959 1406 -962 0
-959 -1407 963 0
959 1407 -963 0
-959 -1408 964 0
959 1408 -964 0
-959 -1409 965 0
959 1409 -965 0
-959 -1410 966 0
959 1410 -966 0
-960 -1411 961 0
960 1411 -961 0
-960 -1412 962 0
960 1412 -962 0
-960 -1413 963 0
960 1413 -963 0
-960 -1414 964 0
960 1414 -964 0
-960 -1415 965 0
960 1415 -965 0
-960 -1416 966 0
960 1416 -966 0
-961 -1417 962 0
961 1417 -962 0
-961 -1418 963 0
961 1418 -963 0
-961 -1419 964 0
961 1419 -964 0
-961 -1420 965 0
961 1420 -965 0
-961 -1421 966 0
961 1421 -966 0
-962 -1422 963 0
962 1422 -963 0
-962 -1423 964 0
962 1423 -964 0
-962 -1424 965 0
962 1424 -965 0
-962 -1425 966 0
962 1425 -966 0
-963 -1426 964 0
963 1426 -964 0
-963 -1427 965 0
963 1427 -965 0
-963 -1428 966 0
963 1428 -966 0
-964 -1429 965 0
964 1429 -965 0
-964 -1430 966 0
964 1430 -966 0
-965 -1431 966 0
965 1431 -966 0
-967 -997 968 0
967 997 -968 0
-967 -998 969 0
967 998 -969 0
-967 -999 970 0
967 999 -970 0
-967 -1000 971 0
967 1000 -971 0
-967 -1001 972 0
967 1001 -972 0
-967 -1002 973 0
967 1002 -973 0
-967 -1003 974 0
967 1003 -974 0
-967 -1004 975 0
967 1004 -975 0
-967 -1005 976 0
967 1005 -976 0
-967 -1006 977 0
967 1006 -977 0
-967 -1007 978 0
967 1007 -978 0
-967 -1008 979 0
967 1008 -979 0
-967 -1009 980 0
967 1009 -980 0
-967 -1010 981 0
967 1010 -981 0
-967 -1011 982 0
967 1011 -982 0
-967 -1012 983 0
967 1012 -983 0
-967 -1013 984 0
967 1013 -984 0
-967 -1014 985 0
967 1014 -985 0
-967 -1015 986 0
967 1015 -986 0
-967 -1016 987 0
967 1016 -987 0
-967 -1017 988 0
967 1017 -988 0
-967 -1018 989 0
967 1018 -989 0
-967 -1019 990 0
967 1019 -990 0
-967 -1020 991 0
967 1020 -991 0
-967 -1021 992 0
967 1021 -992 0
-967 -1022 993 0
967 1022 -993 0
-967 -1023 994 0
967 1023 -994 0
-967 -1024 995 0
967 1024 -995 0
-967 -1025 996 0
967 1025 -996 0
-968 -1026 969 0
968 1026 -969 0
-968 -1027 970 0
968 1027 -970 0
-968 -1028 971 0
968 1028 -971 0
-968 -1029 972 0
968 1029 -972 0
-968 -1030 973 0
968 1030 -973 0
-968 -1031 974 0
968 1031 -974 0
-968 -1032 975 0
968 1032 -975 0
-968 -1033 976 0
968 1033 -976 0
-968 -1034 977 0
968 1034 -977 0
-968 -1035 978 0
968 1035 -978 0
-968 -1036 979 0
968 1036 -979 0
-968 -1037 980 0
968 1037 -980 0
-968 -1038 981 0
968 1038 -981 0
-968 -1039 982 0
968 1039 -982 0
-968 -1040 983 0
968 1040 -983 0
-968 -1041 984 0
968 1041 -984 0
-968 -1042 985 0
968 1042 -985 0
-968 -1043 986 0
968 1043 -986 0
-968 -1044 987 0
968 1044 -987 0
-968 -1045 988 0
968 1045 -988 0
-968 -1046 989 0
968 1046 -989 0
-968 -1047 990 0
968 1047 -990 0
-968 -1048 991 0
968 1048 -991 0
-968 -1049 992 0
968 1049 -992 0
-968 -1050 993 0
968 1050 -993 0
-968 -1051 994 0
968 1051 -994 0
-968 -1052 995 0
968 1052 -995 0
-968 -1053 996 0
968 1053 -996 0
-969 -1054 970 0
969 1054 -970 0
-969 -1055 971 0
969 1055 -971 0
-969 -1056 972 0
969 1056 -972 0
-969 -1057 973 0
969 1057 -973 0
-969 -1058 974 0
969 1058 -974 0
-969 -1059 975 0
969 1059 -975 0
-969 -1060 976 0
969 1060 -976 0
-969 -1061 977 0
969 1061 -977 0
-969 -1062 978 0
969 1062 -978 0
-969 -1063 979 0
969 1063 -979 0
-969 -1064 980 0
969 1064 -980 0
-969 -1065 981 0
969 1065 -981 0
-969 -1066 982 0
969 1066 -982 0
-969 -1067 983 0
969 1067 -983 0
-969 -1068 984 0
969 1068 -984 0
-969 -1069 985 0
969 1069 -985 0
-969 -1070 986 0
969 1070 -986 0
-969 -1071 987 0
969 1071 -987 0
-969 -1072 988 0
969 1072 -988 0
-969 -1073 989 0
969 1073 -989 0
-969 -1074 990 0
969 1074 -990 0
-969 -1075 991 0
969 1075 -991 0
-969 -1076 992 0
969 1076 -992 0
-969 -1077 993 0
969 1077 -993 0
-969 -1078 994 0
969 1078 -994 0
-969 -1079 995 0
969 1079 -995 0
-969 -1080 996 0
969 1080 -996 0
-970 -1081 971 0
970 1081 -971 0
-970 -1082 972 0
970 1082 -972 0
-970 -1083 973 0
970 1083 -973 0
-970 -1084 974 0
970 1084 -974 0
-970 -1085 975 0
970 1085 -975 0
-970 -1086 976 0
970 1086 -976 0
-970 -1087 977 0
970 1087 -977 0
-970 -1088 978 0
970 1088 -978 0
-970 -1089 979 0
970 1089 -979 0
-970 -1090 980 0
970 1090 -980 0
-970 -1091 981 0
970 1091 -981 0
-970 -1092 982 0
970 1092 -982 0
-970 -1093 983 0
970 1093 -983 0
-970 -1094 984 0
970 1094 -984 0
-970 -1095 985 0
970 1095 -985 0
-970 -1096 986 0
970 1096 -986 0
-970 -1097 987 0
970 1097 -987 0
-970 -1098 988 0
970 1098 -988 0
-970 -1099 989 0
970 1099 -989 0
-970 -1100 990 0
970 1100 -990 0
-970 -1101 991 0
970 1101 -991 0
-970 -1102 992 0
970 1102 -992 0
-970 -1103 993 0
970 1103 -993 0
-970 -1104 994 0
970 1104 -994 0
-970 -1105 995 0
970 1105 -995 0
-970 -1106 996 0
970 1106 -996 0
-971 -1107 972 0
971 1107 -972 0
-971 -1108 973 0
971 1108 -973 0
-971 -1109 974 0
971 1109 -974 0
-971 -1110 975 0
971 1110 -975 0
-971 -1111 976 0
971 1111 -976 0
-971 -1112 977 0
971 1112 -977 0
-971 -1113 978 0
971 1113 -978 0
-971 -1114 979 0
971 1114 -979 0
-971 -1115 980 0
971 1115 -980 0
-971 -1116 981 0
971 1116 -981 0
-971 -1117 982 0
971 1117 -982 0
-971 -1118 983 0
971 1118 -983 0
-971 -1119 984 0
971 1119 -984 0
-971 -1120 985 0
971 1120 -985 0
-971 -1121 986 0
971 1121 -986 0
-971 -1122 987 0
971 1122 -987 0
-971 -1123 988 0
971 1123 -988 0
-971 -1124 989 0
971 1124 -989 0
-971 -1125 990 0
971 1125 -990 0
-971 -1126 991 0
971 1126 -991 0
-971 -1127 992 0
971 1127 -992 0
-971 -1128 993 0
971 1128 -993 0
-971 -1129 994 0
971 1129 -994 0
-971 -1130 995 0
971 1130 -995 0
-971 -1131 996 0
971 1131 -996 0
-972 -1132 973 0
972 1132 -973 0
-972 -1133 974 0
972 1133 -974 0
-972 -1134 975 0
972 1134 -975 0
-972 -1135 976 0
972 1135 -976 0
-972 -1136 977 0
972 1136 -977 0
-972 -1137 978 0
972 1137 -978 0
-972 -1138 979 0
972 1138 -979 0
-972 -1139 980 0
972 1139 -980 0
-972 -1140 981 0
972 1140 -981 0
-972 -1141 982 0
972 1141 -982 0
-972 -1142 983 0
972 1142 -983 0
-972 -1143 984 0
972 1143 -984 0
-972 -1144 985 0
972 1144 -985 0
-972 -1145 986 0
972 1145 -986 0
-972 -1146 987 0
972 1146 -987 0
-972 -1147 988 0
972 1147 -988 0
-972 -1148 989 0
972 1148 -989 0
-972 -1149 990 0
972 1149 -990 0
-972 -1150 991 0
972 1150 -991 0
-972 -1151 992 0
972 1151 -992 0
-972 -1152 993 0
972 1152 -993 0
-972 -1153 994 0
972 1153 -994 0
-972 -1154 995 0
972 1154 -995 0
-972 -1155 996 0
972 1155 -996 0
-973 -1156 974 0
973 1156 -974 0
-973 -1157 975 0
973 1157 -975 0
-973 -1158 976 0
973 1158 -976 0
-973 -1159 977 0
973 1159 -977 0
-973 -1160 978 0
973 1160 -978 0
-973 -1161 979 0
973 1161 -979 0
-973 -1162 980 0
973 1162 -980 0
-973 -1163 981 0
973 1163 -981 0
-973 -1164 982 0
973 1164 -982 0
-973 -1165 983 0
973 1165 -983 0
-973 -1166 984 0
973 1166 -984 0
-973 -1167 985 0
973 1167 -985 0
-973 -1168 986 0
973 1168 -986 0
-973 -1169 987 0
973 1169 -987 0
-973 -1170 988 0
973 1170 -988 0
-973 -1171 989 0
973 1171 -989 0
-973 -1172 990 0
973 1172 -990 0
-973 -1173 991 0
973 1173 -991 0
-973 -1174 992 0
973 1174 -992 0
-973 -1175 993 0
973 1175 -993 0
-973 -1176 994 0
973 1176 -994 0
-973 -1177 995 0
973 1177 -995 0
-973 -1178 996 0
973 1178 -996 0
-974 -1179 975 0
974 1179 -975 0
-974 -1180 976 0
974 1180 -976 0
-974 -1181 977 0
974 1181 -977 0
-974 -1182 978 0
974 1182 -978 0
-974 -1183 979 0
974 1183 -979 0
-974 -1184 980 0
974 1184 -980 0
-974 -1185 981 0
974 1185 -981 0
-974 -1186 982 0
974 1186 -982 0
-974 -1187 983 0
974 1187 -983 0
-974 -1188 984 0
974 1188 -984 0
-974 -1189 985 0
974 1189 -985 0
-974 -1190 986 0
974 1190 -986 0
-974 -1191 987 0
974 1191 -987 0
-974 -1192 988 0
974 1192 -988 0
-974 -1193 989 0
974 1193 -989 0
-974 -1194 990 0
974 1194 -990 0
-974 -1195 991 0
974 1195 -991 0
-974 -1196 992 0
974 1196 -992 0
-974 -1197 993 0
974 1197 -993 0
-974 -1198 994 0
974 1198 -994 0
-974 -1199 995 0
974 1199 -995 0
-974 -1200 996 0
974 1200 -996 0
-975 -1201 976 0
975 1201 -976 0
-975 -1202 977 0
975 1202 -977 0
-975 -1203 978 0
975 1203 -978 0
-975 -1204 979 0
975 1204 -979 0
-975 -1205 980 0
975 1205 -980 0
-975 -1206 981 0
975 1206 -981 0
-975 -1207 982 0
975 1207 -982 0
-975 -1208 983 0
975 1208 -983 0
-975 -1209 984 0
975 1209 -984 0
-975 -1210 985 0
975 1210 -985 0
-975 -1211 986 0
975 1211 -986 0
-975 -1212 987 0
975 1212 -987 0
-975 -1213 988 0
975 1213 -988 0
-975 -1214 989 0
975 1214 -989 0
-975 -1215 990 0
975 1215 -990 0
-975 -1216 991 0
975 1216 -991 0
-975 -1217 992 0
975 1217 -992 0
-975 -1218 993 0
975 1218 -993 0
-975 -1219 994 0
975 1219 -994 0
-975 -1220 995 0
975 1220 -995 0
-975 -1221 996 0
975 1221 -996 0
-976 -1222 977 0
976 1222 -977 0
-976 -1223 978 0
976 1223 -978 0
-976 -1224 979 0
976 1224 -979 0
-976 -1225 980 0
976 1225 -980 0
-976 -1226 981 0
976 1226 -981 0
-976 -1227 982 0
976 1227 -982 0
-976 -1228 983 0
976 1228 -983 0
-976 -1229 984 0
976 1229 -984 0
-976 -1230 985 0
976 1230 -985 0
-976 -1231 986 0
976 1231 -986 0
-976 -1232 987 0
976 1232 -987 0
-976 -1233 988 0
976 1233 -988 0
-976 -1234 989 0
976 1234 -989 0
-976 -1235 990 0
976 1235 -990 0
-976 -1236 991 0
976 1236 -991 0
-976 -1237 992 0
976 1237 -992 0
-976 -1238 993 0
976 1238 -993 0
-976 -1239 994 0
976 1239 -994 0
-976 -1240 995 0
976 1240 -995 0
-976 -1241 996 0
976 1241 -996 0
-977 -1242 978 0
977 1242 -978 0
-977 -1243 979 0
977 1243 -979 0
-977 -1244 980 0
977 1244 -980 0
-977 -1245 981 0
977 1245 -981 0
-977 -1246 982 0
977 1246 -982 0
-977 -1247 983 0
977 1247 -983 0
-977 -1248 984 0
977 1248 -984 0
-977 -1249 985 0
977 1249 -985 0
-977 -1250 986 0
977 1250 -986 0
-977 -1251 987 0
977 1251 -987 0
-977 -1252 988 0
977 1252 -988 0
-977 -1253 989 0
977 1253 -989 0
-977 -1254 990 0
977 1254 -990 0
-977 -1255 991 0
977 1255 -991 0
-977 -1256 992 0
977 1256 -992 0
-977 -1257 993 0
977 1257 -993 0
-977 -1258 994 0
977 1258 -994 0
-977 -1259 995 0
977 1259 -995 0
-977 -1260 996 0
977 1260 -996 0
-978 -1261 979 0
978 1261 -979 0
-978 -1262 980 0
978 1262 -980 0
-978 -1263 981 0
978 1263 -981 0
-978 -1264 982 0
978 1264 -982 0
-978 -1265 983 0
978 1265 -983 0
-978 -1266 984 0
978 1266 -984 0
-978 -1267 985 0
978 1267 -985 0
-978 -1268 986 0
978 1268 -986 0
-978 -1269 987 0
978 1269 -987 0
-978 -1270 988 0
978 1270 -988 0
-978 -1271 989 0
978 1271 -989 0
-978 -1272 990 0
978 1272 -990 0
-978 -1273 991 0
978 1273 -991 0
-978 -1274 992 0
978 1274 -992 0
-978 -1275 993 0
978 1275 -993 0
-978 -1276 994 0
978 1276 -994 0
-978 -1277 995 0
978 1277 -995 0
-978 -1278 996 0
978 1278 -996 0
-979 -1279 980 0
979 1279 -980 0
-979 -1280 981 0
979 1280 -981 0
-979 -1281 982 0
979 1281 -982 0
-979 -1282 983 0
979 1282 -983 0
-979 -1283 984 0
979 1283 -984 0
-979 -1284 985 0
979 1284 -985 0
-979 -1285 986 0
979 1285 -986 0
-979 -1286 987 0
979 1286 -987 0
-979 -1287 988 0
979 1287 -988 0
-979 -1288 989 0
979 1288 -989 0
-979 -1289 990 0
979 1289 -990 0
-979 -1290 991 0
979 1290 -991 0
-979 -1291 992 0
979 1291 -992 0
-979 -1292 993 0
979 1292 -993 0
-979 -1293 994 0
979 1293 -994 0
-979 -1294 995 0
979 1294 -995 0
-979 -1295 996 0
979 1295 -996 0
-980 -1296 981 0
980 1296 -981 0
-980 -1297 982 0
980 1297 -982 0
-980 -1298 983 0
980 1298 -983 0
-980 -1299 984 0
980 1299 -984 0
-980 -1300 985 0
980 1300 -985 0
-980 -1301 986 0
980 1301 -986 0
-980 -1302 987 0
980 1302 -987 0
-980 -1303 988 0
980 1303 -988 0
-980 -1304 989 0
980 1304 -989 0
-980 -1305 990 0
980 1305 -990 0
-980 -1306 991 0
980 1306 -991 0
-980 -1307 992 0
980 1307 -992 0
-980 -1308 993 0
980 1308 -993 0
-980 -1309 994 0
980 1309 -994 0
-980 -1310 995 0
980 1310 -995 0
-980 -1311 996 0
980 1311 -996 0
-981 -1312 982 0
981 1312 -982 0
-981 -1313 983 0
981 1313 -983 0
-981 -1314 984 0
981 1314 -984 0
-981 -1315 985 0
981 1315 -985 0
-981 -1316 986 0
981 1316 -986 0
-981 -1317 987 0
981 1317 -987 0
-981 -1318 988 0
981 1318 -988 0
-981 -1319 989 0
981 1319 -989 0
-981 -1320 990 0
981 1320 -990 0
-981 -1321 991 0
981 1321 -991 0
-981 -1322 992 0
981 1322 -992 0
-981 -1323 993 0
981 1323 -993 0
-981 -1324 994 0
981 1324 -994 0
-981 -1325 995 0
981 1325 -995 0
-981 -1326 996 0
981 1326 -996 0
-982 -1327 983 0
982 1327 -983 0
-982 -1328 984 0
982 1328 -984 0
-982 -1329 985 0
982 1329 -985 0
-982 -1330 986 0
982 1330 -986 0
-982 -1331 987 0
982 1331 -987 0
-982 -1332 988 0
982 1332 -988 0
-982 -1333 989 0
982 1333 -989 0
-982 -1334 990 0
982 1334 -990 0
-982 -1335 991 0
982 1335 -991 0
-982 -1336 992 0
982 1336 -992 0
-982 -1337 993 0
982 1337 -993 0
-982 -1338 994 0
982 1338 -994 0
-982 -1339 995 0
982 1339 -995 0
-982 -1340 996 0
982 1340 -996 0
-983 -1341 984 0
983 1341 -984 0
-983 -1342 985 0
983 1342 -985 0
-983 -1343 986 0
983 1343 -986 0
-983 -1344 987 0
983 1344 -987 0
-983 -1345 988 0
983 1345 -988 0
-983 -1346 989 0
983 1346 -989 0
-983 -1347 990 0
983 1347 -990 0
-983 -1348 991 0
983 1348 -991 0
-983 -1349 992 0
983 1349 -992 0
-983 -1350 993 0
983 1350 -993 0
-983 -1351 994 0
983 1351 -994 0
-983 -1352 995 0
983 1352 -995 0
-983 -1353 996 0
983 1353 -996 0
-984 -1354 985 0
984 1354 -985 0
-984 -1355 986 0
984 1355 -986 0
-984 -1356 987 0
984 1356 -987 0
-984 -1357 988 0
984 1357 -988 0
-984 -1358 989 0
984 1358 -989 0
-984 -1359 990 0
984 1359 -990 0
-984 -1360 991 0
984 1360 -991 0
-984 -1361 992 0
984 1361 -992 0
-984 -1362 993 0
984 1362 -993 0
-984 -1363 994 0
984 1363 -994 0
-984 -1364 995 0
984 1364 -995 0
-984 -1365 996 0
984 1365 -996 0
-985 -1366 986 0
985 1366 -986 0
-985 -1367 987 0
985 1367 -987 0
-985 -1368 988 0
985 1368 -988 0
-985 -1369 989 0
985 1369 -989 0
-985 -1370 990 0
985 1370 -990 0
-985 -1371 991 0
985 1371 -991 0
-985 -1372 992 0
985 1372 -992 0
-985 -1373 993 0
985 1373 -993 0
-985 -1374 994 0
985 1374 -994 0
-985 -1375 995 0
985 1375 -995 0
-985 -1376 996 0
985 1376 -996 0
-986 -1377 987 0
986 1377 -987 0
-986 -1378 988 0
986 1378 -988 0
-986 -1379 989 0
986 1379 -989 0
-986 -1380 990 0
986 1380 -990 0
-986 -1381 991 0
986 1381 -991 0
-986 -1382 992 0
986 1382 -992 0
-986 -1383 993 0
986 1383 -993 0
-986 -1384 994 0
986 1384 -994 0
-986 -1385 995 0
986 1385 -995 0
-986 -1386 996 0
986 1386 -996 0
-987 -1387 988 0
987 1387 -988 0
-987 -1388 989 0
987 1388 -989 0
-987 -1389 990 0
987 1389 -990 0
-987 -1390 991 0
987 1390 -991 0
-987 -1391 992 0
987 1391 -992 0
-987 -1392 993 0
987 1392 -993 0
-987 -1393 994 0
987 1393 -994 0
-987 -1394 995 0
987 1394 -995 0
-987 -1395 996 0
987 1395 -996 0
-988 -1396 989 0
988 1396 -989 0
-988 -1397 990 0
988 1397 -990 0
-988 -1398 991 0
988 1398 -991 0
-988 -1399 992 0
988 1399 -992 0
-988 -1400 993 0
988 1400 -993 0
-988 -1401 994 0
988 1401 -994 0
-988 -1402 995 0
988 1402 -995 0
-988 -1403 996 0
988 1403 -996 0
-989 -1404 990 0
989 1404 -990 0
-989 -1405 991 0
989 1405 -991 0
-989 -1406 992 0
989 1406 -992 0
-989 -1407 993 0
989 1407 -993 0
-989 -1408 994 0
989 1408 -994 0
-989 -1409 995 0
989 1409 -995 0
-989 -1410 996 0
989 1410 -996 0
-990 -1411 991 0
990 1411 -991 0
-990 -1412 992 0
990 1412 -992 0
-990 -1413 993 0
990 1413 -993 0
-990 -1414 994 0
990 1414 -994 0
-990 -1415 995 0
990 1415 -995 0
-990 -1416 996 0
990 1416 -996 0
-991 -1417 992 0
991 1417 -992 0
-991 -1418 993 0
991 1418 -993 0
-991 -1419 994 0
991 1419 -994 0
-991 -1420 995 0
991 1420 -995 0
-991 -1421 996 0
991 1421 -996 0
-992 -1422 993 0
992 1422 -993 0
-992 -1423 994 0
992 1423 -994 0
-992 -1424 995 0
992 1424 -995 0
-992 -1425 996 0
992 1425 -996 0
-993 -1426 994 0
993 1426 -994 0
-993 -1427 995 0
993 1427 -995 0
-993 -1428 996 0
993 1428 -996 0
-994 -1429 995 0
994 1429 -995 0
-994 -1430 996 0
994 1430 -996 0
-995 -1431 996 0
995 1431 -996 0
-997 -1026 998 0
997 1026 -998 0
-997 -1027 999 0
997 1027 -999 0
-997 -1028 1000 0
997 1028 -1000 0
-997 -1029 1001 0
997 1029 -1001 0
-997 -1030 1002 0
997 1030 -1002 0
-997 -1031 1003 0
997 1031 -1003 0
-997 -1032 1004 0
997 1032 -1004 0
-997 -1033 1005 0
997 1033 -1005 0
-997 -1034 1006 0
997 1034 -1006 0
-997 -1035 1007 0
997 1035 -1007 0
-997 -1036 1008 0
997 1036 -1008 0
-997 -1037 1009 0
997 1037 -1009 0
-997 -1038 1010 0
997 1038 -1010 0
-997 -1039 1011 0
997 1039 -1011 0
-997 -1040 1012 0
997 1040 -1012 0
-997 -1041 1013 0
997 1041 -1013 0
-997 -1042 1014 0
997 1042 -1014 0
-997 -1043 1015 0
997 1043 -1015 0
-997 -1044 1016 0
997 1044 -1016 0
-997 -1045 1017 0
997 1045 -1017 0
-997 -1046 1018 0
997 1046 -1018 0
-997 -1047 1019 0
997 1047 -1019 0
-997 -1048 1020 0
997 1048 -1020 0
-997 -1049 1021 0
997 1049 -1021 0
-997 -1050 1022 0
997 1050 -1022 0
-997 -1051 1023 0
997 1051 -1023 0
-997 -1052 1024 0
997 1052 -1024 0
-997 -1053 1025 0
997 1053 -1025 0
-998 -1054 999 0
998 1054 -999 0
-998 -1055 1000 0
998 1055 -1000 0
-998 -1056 1001 0
998 1056 -1001 0
-998 -1057 1002 0
998 1057 -1002 0
-998 -1058 1003 0
998 1058 -1003 0
-998 -1059 1004 0
998 1059 -1004 0
-998 -1060 1005 0
998 1060 -1005 0
-998 -1061 1006 0
998 1061 -1006 0
-998 -1062 1007 0
998 1062 -1007 0
-998 -1063 1008 0
998 1063 -1008 0
-998 -1064 1009 0
998 1064 -1009 0
-998 -1065 1010 0
998 1065 -1010 0
-998 -1066 1011 0
998 1066 -1011 0
-998 -1067 1012 0
998 1067 -1012 0
-998 -1068 1013 0
998 1068 -1013 0
-998 -1069 1014 0
998 1069 -1014 0
-998 -1070 1015 0
998 1070 -1015 0
-998 -1071 1016 0
998 1071 -1016 0
-998 -1072 1017 0
998 1072 -1017 0
-998 -1073 1018 0
998 1073 -1018 0
-998 -1074 1019 0
998 1074 -1019 0
-998 -1075 1020 0
998 1075 -1020 0
-998 -1076 1021 0
998 1076 -1021 0
-998 -1077 1022 0
998 1077 -1022 0
-998 -1078 1023 0
998 1078 -1023 0
-998 -1079 1024 0
998 1079 -1024 0
-998 -1080 1025 0
998 1080 -1025 0
-999 -1081 1000 0
999 1081 -1000 0
-999 -1082 1001 0
999 1082 -1001 0
-999 -1083 1002 0
999 1083 -1002 0
-999 -1084 1003 0
999 1084 -1003 0
-999 -1085 1004 0
999 1085 -1004 0
-999 -1086 1005 0
999 1086 -1005 0
-999 -1087 1006 0
999 1087 -1006 0
-999 -1088 1007 0
999 1088 -1007 0
-999 -1089 1008 0
999 1089 -1008 0
-999 -1090 1009 0
999 1090 -1009 0
-999 -1091 1010 0
999 1091 -1010 0
-999 -1092 1011 0
999 1092 -1011 0
-999 -1093 1012 0
999 1093 -1012 0
-999 -1094 1013 0
999 1094 -1013 0
-999 -1095 1014 0
999 1095 -1014 0
-999 -1096 1015 0
999 1096 -1015 0
-999 -1097 1016 0
999 1097 -1016 0
-999 -1098 1017 0
999 1098 -1017 0
-999 -1099 1018 0
999 1099 -1018 0
-999 -1100 1019 0
999 1100 -1019 0
-999 -1101 1020 0
999 1101 -1020 0
-999 -1102 1021 0
999 1102 -1021 0
-999 -1103 1022 0
999 1103 -1022 0
-999 -1104 1023 0
999 1104 -1023 0
-999 -1105 1024 0
999 1105 -1024 0
-999 -1106 1025 0
999 1106 -1025 0
-1000 -1107 1001 0
1000 1107 -1001 0
-1000 -1108 1002 0
1000 1108 -1002 0
-1000 -1109 1003 0
1000 1109 -1003 0
-1000 -1110 1004 0
1000 1110 -1004 0
-1000 -1111 1005 0
1000 1111 -1005 0
-1000 -1112 1006 0
1000 1112 -1006 0
-1000 -1113 1007 0
1000 1113 -1007 0
-1000 -1114 1008 0
1000 1114 -1008 0
-1000 -1115 1009 0
1000 1115 -1009 0
-1000 -1116 1010 0
1000 1116 -1010 0
-1000 -1117 1011 0
1000 1117 -1011 0
-1000 -1118 1012 0
1000 1118 -1012 0
-1000 -1119 1013 0
1000 1119 -1013 0
-1000 -1120 1014 0
1000 1120 -1014 0
-1000 -1121 1015 0
1000 1121 -1015 0
-1000 -1122 1016 0
1000 1122 -1016 0
-1000 -1123 1017 0
1000 1123 -1017 0
-1000 -1124 1018 0
1000 1124 -1018 0
-1000 -1125 1019 0
1000 1125 -1019 0
-1000 -1126 1020 0
1000 1126 -1020 0
-1000 -1127 1021 0
1000 1127 -1021 0
-1000 -1128 1022 0
1000 1128 -1022 0
-1000 -1129 1023 0
1000 1129 -1023 0
-1000 -1130 1024 0
1000 1130 -1024 0
-1000 -1131 1025 0
1000 1131 -1025 0
-1001 -1132 1002 0
1001 1132 -1002 0
-1001 -1133 1003 0
1001 1133 -1003 0
-1001 -1134 1004 0
1001 1134 -1004 0
-1001 -1135 1005 0
1001 1135 -1005 0
-1001 -1136 1006 0
1001 1136 -1006 0
-1001 -1137 1007 0
1001 1137 -1007 0
-1001 -1138 1008 0
1001 1138 -1008 0
-1001 -1139 1009 0
1001 1139 -1009 0
-1001 -1140 1010 0
1001 1140 -1010 0
-1001 -1141 1011 0
1001 1141 -1011 0
-1001 -1142 1012 0
1001 1142 -1012 0
-1001 -1143 1013 0
1001 1143 -1013 0
-1001 -1144 1014 0
1001 1144 -1014 0
-1001 -1145 1015 0
1001 1145 -1015 0
-1001 -1146 1016 0
1001 1146 -1016 0
-1001 -1147 1017 0
1001 1147 -1017 0
-1001 -1148 1018 0
1001 1148 -1018 0
-1001 -1149 1019 0
1001 1149 -1019 0
-1001 -1150 1020 0
1001 1150 -1020 0
-1001 -1151 1021 0
1001 1151 -1021 0
-1001 -1152 1022 0
1001 1152 -1022 0
-1001 -1153 1023 0
1001 1153 -1023 0
-1001 -1154 1024 0
1001 1154 -1024 0
-1001 -1155 1025 0
1001 1155 -1025 0
-1002 -1156 1003 0
1002 1156 -1003 0
-1002 -1157 1004 0
1002 1157 -1004 0
-1002 -1158 1005 0
1002 1158 -1005 0
-1002 -1159 1006 0
1002 1159 -1006 0
-1002 -1160 1007 0
1002 1160 -1007 0
-1002 -1161 1008 0
1002 1161 -1008 0
-1002 -1162 1009 0
1002 1162 -1009 0
-1002 -1163 1010 0
1002 1163 -1010 0
-1002 -1164 1011 0
1002 1164 -1011 0
-1002 -1165 1012 0
1002 1165 -1012 0
-1002 -1166 1013 0
1002 1166 -1013 0
-1002 -1167 1014 0
1002 1167 -1014 0
-1002 -1168 1015 0
1002 1168 -1015 0
-1002 -1169 1016 0
1002 1169 -1016 0
-1002 -1170 1017 0
1002 1170 -1017 0
-1002 -1171 1018 0
1002 1171 -1018 0
-1002 -1172 1019 0
1002 1172 -1019 0
-1002 -1173 1020 0
1002 1173 -1020 0
-1002 -1174 1021 0
1002 1174 -1021 0
-1002 -1175 1022 0
1002 1175 -1022 0
-1002 -1176 1023 0
1002 1176 -1023 0
-1002 -1177 1024 0
1002 1177 -1024 0
-1002 -1178 1025 0
1002 1178 -1025 0
-1003 -1179 1004 0
1003 1179 -1004 0
-1003 -1180 1005 0
1003 1180 -1005 0
-1003 -1181 1006 0
1003 1181 -1006 0
-1003 -1182 1007 0
1003 1182 -1007 0
-1003 -1183 1008 0
1003 1183 -1008 0
-1003 -1184 1009 0
1003 1184 -1009 0
-1003 -1185 1010 0
1003 1185 -1010 0
-1003 -1186 1011 0
1003 1186 -1011 0
-1003 -1187 1012 0
1003 1187 -1012 0
-1003 -1188 1013 0
1003 1188 -1013 0
-1003 -1189 1014 0
1003 1189 -1014 0
-1003 -1190 1015 0
1003 1190 -1015 0
-1003 -1191 1016 0
1003 1191 -1016 0
-1003 -1192 1017 0
1003 1192 -1017 0
-1003 -1193 1018 0
1003 1193 -1018 0
-1003 -1194 1019 0
1003 1194 -1019 0
-1003 -1195 1020 0
1003 1195 -1020 0
-1003 -1196 1021 0
1003 1196 -1021 0
-1003 -1197 1022 0
1003 1197 -1022 0
-1003 -1198 1023 0
1003 1198 -1023 0
-1003 -1199 1024 0
1003 1199 -1024 0
-1003 -1200 1025 0
1003 1200 -1025 0
-1004 -1201 1005 0
1004 1201 -1005 0
-1004 -1202 1006 0
1004 1202 -1006 0
-1004 -1203 1007 0
1004 1203 -1007 0
-1004 -1204 1008 0
1004 1204 -1008 0
-1004 -1205 1009 0
1004 1205 -1009 0
-1004 -1206 1010 0
1004 1206 -1010 0
-1004 -1207 1011 0
1004 1207 -1011 0
-1004 -1208 1012 0
1004 1208 -1012 0
-1004 -1209 1013 0
1004 1209 -1013 0
-1004 -1210 1014 0
1004 1210 -1014 0
-1004 -1211 1015 0
1004 1211 -1015 0
-1004 -1212 1016 0
1004 1212 -1016 0
-1004 -1213 1017 0
1004 1213 -1017 0
-1004 -1214 1018 0
1004 1214 -1018 0
-1004 -1215 1019 0
1004 1215 -1019 0
-1004 -1216 1020 0
1004 1216 -1020 0
-1004 -1217 1021 0
1004 1217 -1021 0
-1004 -1218 1022 0
1004 1218 -1022 0
-1004 -1219 1023 0
1004 1219 -1023 0
-1004 -1220 1024 0
1004 1220 -1024 0
-1004 -1221 1025 0
1004 1221 -1025 0
-1005 -1222 1006 0
1005 1222 -1006 0
-1005 -1223 1007 0
1005 1223 -1007 0
-1005 -1224 1008 0
1005 1224 -1008 0
-1005 -1225 1009 0
1005 1225 -1009 0
-1005 -1226 1010 0
1005 1226 -1010 0
-1005 -1227 1011 0
1005 1227 -1011 0
-1005 -1228 1012 0
1005 1228 -1012 0
-1005 -1229 1013 0
1005 1229 -1013 0
-1005 -1230 1014 0
1005 1230 -1014 0
-1005 -1231 1015 0
1005 1231 -1015 0
-1005 -1232 1016 0
1005 1232 -1016 0
-1005 -1233 1017 0
1005 1233 -1017 0
-1005 -1234 1018 0
1005 1234 -1018 0
-1005 -1235 1019 0
1005 1235 -1019 0
-1005 -1236 1020 0
1005 1236 -1020 0
-1005 -1237 1021 0
1005 1237 -1021 0
-1005 -1238 1022 0
1005 1238 -1022 0
-1005 -1239 1023 0
1005 1239 -1023 0
-1005 -1240 1024 0
1005 1240 -1024 0
-1005 -1241 1025 0
1005 1241 -1025 0
-1006 -1242 1007 0
1006 1242 -1007 0
-1006 -1243 1008 0
1006 1243 -1008 0
-1006 -1244 1009 0
1006 1244 -1009 0
-1006 -1245 1010 0
1006 1245 -1010 0
-1006 -1246 1011 0
1006 1246 -1011 0
-1006 -1247 1012 0
1006 1247 -1012 0
-1006 -1248 1013 0
1006 1248 -1013 0
-1006 -1249 1014 0
1006 1249 -1014 0
-1006 -1250 1015 0
1006 1250 -1015 0
-1006 -1251 1016 0
1006 1251 -1016 0
-1006 -1252 1017 0
1006 1252 -1017 0
-1006 -1253 1018 0
1006 1253 -1018 0
-1006 -1254 1019 0
1006 1254 -1019 0
-1006 -1255 1020 0
1006 1255 -1020 0
-1006 -1256 1021 0
1006 1256 -1021 0
-1006 -1257 1022 0
1006 1257 -1022 0
-1006 -1258 1023 0
1006 1258 -1023 0
-1006 -1259 1024 0
1006 1259 -1024 0
-1006 -1260 1025 0
1006 1260 -1025 0
-1007 -1261 1008 0
1007 1261 -1008 0
-1007 -1262 1009 0
1007 1262 -1009 0
-1007 -1263 1010 0
1007 1263 -1010 0
-1007 -1264 1011 0
1007 1264 -1011 0
-1007 -1265 1012 0
1007 1265 -1012 0
-1007 -1266 1013 0
1007 1266 -1013 0
-1007 -1267 1014 0
1007 1267 -1014 0
-1007 -1268 1015 0
1007 1268 -1015 0
-1007 -1269 1016 0
1007 1269 -1016 0
-1007 -1270 1017 0
1007 1270 -1017 0
-1007 -1271 1018 0
1007 1271 -1018 0
-1007 -1272 1019 0
1007 1272 -1019 0
-1007 -1273 1020 0
1007 1273 -1020 0
-1007 -1274 1021 0
1007 1274 -1021 0
-1007 -1275 1022 0
1007 1275 -1022 0
-1007 -1276 1023 0
1007 1276 -1023 0
-1007 -1277 1024 0
1007 1277 -1024 0
-1007 -1278 1025 0
1007 1278 -1025 0
-1008 -1279 1009 0
1008 1279 -1009 0
-1008 -1280 1010 0
1008 1280 -1010 0
-1008 -1281 1011 0
1008 1281 -1011 0
-1008 -1282 1012 0
1008 1282 -1012 0
-1008 -1283 1013 0
1008 1283 -1013 0
-1008 -1284 1014 0
1008 1284 -1014 0
-1008 -1285 1015 0
1008 1285 -1015 0
-1008 -1286 1016 0
1008 1286 -1016 0
-1008 -1287 1017 0
1008 1287 -1017 0
-1008 -1288 1018 0
1008 1288 -1018 0
-1008 -1289 1019 0
1008 1289 -1019 0
-1008 -1290 1020 0
1008 1290 -1020 0
-1008 -1291 1021 0
1008 1291 -1021 0
-1008 -1292 1022 0
1008 1292 -1022 0
-1008 -1293 1023 0
1008 1293 -1023 0
-1008 -1294 1024 0
1008 1294 -1024 0
-1008 -1295 1025 0
1008 1295 -1025 0
-1009 -1296 1010 0
1009 1296 -1010 0
-1009 -1297 1011 0
1009 1297 -1011 0
-1009 -1298 1012 0
1009 1298 -1012 0
-1009 -1299 1013 0
1009 1299 -1013 0
-1009 -1300 1014 0
1009 1300 -1014 0
-1009 -1301 1015 0
1009 1301 -1015 0
-1009 -1302 1016 0
1009 1302 -1016 0
-1009 -1303 1017 0
1009 1303 -1017 0
-1009 -1304 1018 0
1009 1304 -1018 0
-1009 -1305 1019 0
1009 1305 -1019 0
-1009 -1306 1020 0
1009 1306 -1020 0
-1009 -1307 1021 0
1009 1307 -1021 0
-1009 -1308 1022 0
1009 1308 -1022 0
-1009 -1309 1023 0
1009 1309 -1023 0
-1009 -1310 1024 0
1009 1310 -1024 0
-1009 -1311 1025 0
1009 1311 -1025 0
-1010 -1312 1011 0
1010 1312 -1011 0
-1010 -1313 1012 0
1010 1313 -1012 0
-1010 -1314 1013 0
1010 1314 -1013 0
-1010 -1315 1014 0
1010 1315 -1014 0
-1010 -1316 1015 0
1010 1316 -1015 0
-1010 -1317 1016 0
1010 1317 -1016 0
-1010 -1318 1017 0
1010 1318 -1017 0
-1010 -1319 1018 0
1010 1319 -1018 0
-1010 -1320 1019 0
1010 1320 -1019 0
-1010 -1321 1020 0
1010 1321 -1020 0
-1010 -1322 1021 0
1010 1322 -1021 0
-1010 -1323 1022 0
1010 1323 -1022 0
-1010 -1324 1023 0
1010 1324 -1023 0
-1010 -1325 1024 0
1010 1325 -1024 0
-1010 -1326 1025 0
1010 1326 -1025 0
-1011 -1327 1012 0
1011 1327 -1012 0
-1011 -1328 1013 0
1011 1328 -1013 0
-1011 -1329 1014 0
1011 1329 -1014 0
-1011 -1330 1015 0
1011 1330 -1015 0
-1011 -1331 1016 0
1011 1331 -1016 0
-1011 -1332 1017 0
1011 1332 -1017 0
-1011 -1333 1018 0
1011 1333 -1018 0
-1011 -1334 1019 0
1011 1334 -1019 0
-1011 -1335 1020 0
1011 1335 -1020 0
-1011 -1336 1021 0
1011 1336 -1021 0
-1011 -1337 1022 0
1011 1337 -1022 0
-1011 -1338 1023 0
1011 1338 -1023 0
-1011 -1339 1024 0
1011 1339 -1024 0
-1011 -1340 1025 0
1011 1340 -1025 0
-1012 -1341 1013 0
1012 1341 -1013 0
-1012 -1342 1014 0
1012 1342 -1014 0
-1012 -1343 1015 0
1012 1343 -1015 0
-1012 -1344 1016 0
1012 1344 -1016 0
-1012 -1345 1017 0
1012 1345 -1017 0
-1012 -1346 1018 0
1012 1346 -1018 0
-1012 -1347 1019 0
1012 1347 -1019 0
-1012 -1348 1020 0
1012 1348 -1020 0
-1012 -1349 1021 0
1012 1349 -1021 0
-1012 -1350 1022 0
1012 1350 -1022 0
-1012 -1351 1023 0
1012 1351 -1023 0
-1012 -1352 1024 0
1012 1352 -1024 0
-1012 -1353 1025 0
1012 1353 -1025 0
-1013 -1354 1014 0
1013 1354 -1014 0
-1013 -1355 1015 0
1013 1355 -1015 0
-1013 -1356 1016 0
1013 1356 -1016 0
-1013 -1357 1017 0
1013 1357 -1017 0
-1013 -1358 1018 0
1013 1358 -1018 0
-1013 -1359 1019 0
1013 1359 -1019 0
-1013 -1360 1020 0
1013 1360 -1020 0
-1013 -1361 1021 0
1013 1361 -1021 0
-1013 -1362 1022 0
1013 1362 -1022 0
-1013 -1363 1023 0
1013 1363 -1023 0
-1013 -1364 1024 0
1013 1364 -1024 0
-1013 -1365 1025 0
1013 1365 -1025 0
-1014 -1366 1015 0
1014 1366 -1015 0
-1014 -1367 1016 0
1014 1367 -1016 0
-1014 -1368 1017 0
1014 1368 -1017 0
-1014 -1369 1018 0
1014 1369 -1018 0
-1014 -1370 1019 0
1014 1370 -1019 0
-1014 -1371 1020 0
1014 1371 -1020 0
-1014 -1372 1021 0
1014 1372 -1021 0
-1014 -1373 1022 0
1014 1373 -1022 0
-1014 -1374 1023 0
1014 1374 -1023 0
-1014 -1375 1024 0
1014 1375 -1024 0
-1014 -1376 1025 0
1014 1376 -1025 0
-1015 -1377 1016 0
1015 1377 -1016 0
-1015 -1378 1017 0
1015 1378 -1017 0
-1015 -1379 1018 0
1015 1379 -1018 0
-1015 -1380 1019 0
1015 1380 -1019 0
-1015 -1381 1020 0
1015 1381 -1020 0
-1015 -1382 1021 0
1015 1382 -1021 0
-1015 -1383 1022 0
1015 1383 -1022 0
-1015 -1384 1023 0
1015 1384 -1023 0
-1015 -1385 1024 0
1015 1385 -1024 0
-1015 -1386 1025 0
1015 1386 -1025 0
-1016 -1387 1017 0
1016 1387 -1017 0
-1016 -1388 1018 0
1016 1388 -1018 0
-1016 -1389 1019 0
1016 1389 -1019 0
-1016 -1390 1020 0
1016 1390 -1020 0
-1016 -1391 1021 0
1016 1391 -1021 0
-1016 -1392 1022 0
1016 1392 -1022 0
-1016 -1393 1023 0
1016 1393 -1023 0
-1016 -1394 1024 0
1016 1394 -1024 0
-1016 -1395 1025 0
1016 1395 -1025 0
-1017 -1396 1018 0
1017 1396 -1018 0
-1017 -1397 1019 0
1017 1397 -1019 0
-1017 -1398 1020 0
1017 1398 -1020 0
-1017 -1399 1021 0
1017 1399 -1021 0
-1017 -1400 1022 0
1017 1400 -1022 0
-1017 -1401 1023 0
1017 1401 -1023 0
-1017 -1402 1024 0
1017 1402 -1024 0
-1017 -1403 1025 0
1017 1403 -1025 0
-1018 -1404 1019 0
1018 1404 -1019 0
-1018 -1405 1020 0
1018 1405 -1020 0
-1018 -1406 1021 0
1018 1406 -1021 0
-1018 -1407 1022 0
1018 1407 -1022 0
-1018 -1408 1023 0
1018 1408 -1023 0
-1018 -1409 1024 0
1018 1409 -1024 0
-1018 -1410 1025 0
1018 1410 -1025 0
-1019 -1411 1020 0
1019 1411 -1020 0
-1019 -1412 1021 0
1019 1412 -1021 0
-1019 -1413 1022 0
1019 1413 -1022 0
-1019 -1414 1023 0
1019 1414 -1023 0
-1019 -1415 1024 0
1019 1415 -1024 0
-1019 -1416 1025 0
1019 1416 -1025 0
-1020 -1417 1021 0
1020 1417 -1021 0
-1020 -1418 1022 0
1020 1418 -1022 0
-1020 -1419 1023 0
1020 1419 -1023 0
-1020 -1420 1024 0
1020 1420 -1024 0
-1020 -1421 1025 0
1020 1421 -1025 0
-1021 -1422 1022 0
1021 1422 -1022 0
-1021 -1423 1023 0
1021 1423 -1023 0
-1021 -1424 1024 0
1021 1424 -1024 0
-1021 -1425 1025 0
1021 1425 -1025 0
-1022 -1426 1023 0
1022 1426 -1023 0
-1022 -1427 1024 0
1022 1427 -1024 0
-1022 -1428 1025 0
1022 1428 -1025 0
-1023 -1429 1024 0
1023 1429 -1024 0
-1023 -1430 1025 0
1023 1430 -1025 0
-1024 -1431 1025 0
1024 1431 -1025 0
-1026 -1054 1027 0
1026 1054 -1027 0
-1026 -1055 1028 0
1026 1055 -1028 0
-1026 -1056 1029 0
1026 1056 -1029 0
-1026 -1057 1030 0
1026 1057 -1030 0
-1026 -1058 1031 0
1026 1058 -1031 0
-1026 -1059 1032 0
1026 1059 -1032 0
-1026 -1060 1033 0
1026 1060 -1033 0
-1026 -1061 1034 0
1026 1061 -1034 0
-1026 -1062 1035 0
1026 1062 -1035 0
-1026 -1063 1036 0
1026 1063 -1036 0
-1026 -1064 1037 0
1026 1064 -1037 0
-1026 -1065 1038 0
1026 1065 -1038 0
-1026 -1066 1039 0
1026 1066 -1039 0
-1026 -1067 1040 0
1026 1067 -1040 0
-1026 -1068 1041 0
1026 1068 -1041 0
-1026 -1069 1042 0
1026 1069 -1042 0
-1026 -1070 1043 0
1026 1070 -1043 0
-1026 -1071 1044 0
1026 1071 -1044 0
-1026 -1072 1045 0
1026 1072 -1045 0
-1026 -1073 1046 0
1026 1073 -1046 0
-1026 -1074 1047 0
1026 1074 -1047 0
-1026 -1075 1048 0
1026 1075 -1048 0
-1026 -1076 1049 0
1026 1076 -1049 0
-1026 -1077 1050 0
1026 1077 -1050 0
-1026 -1078 1051 0
1026 1078 -1051 0
-1026 -1079 1052 0
1026 1079 -1052 0
-1026 -1080 1053 0
1026 1080 -1053 0
-1027 -1081 1028 0
1027 1081 -1028 0
-1027 -1082 1029 0
1027 1082 -1029 0
-1027 -1083 1030 0
1027 1083 -1030 0
-1027 -1084 1031 0
1027 1084 -1031 0
-1027 -1085 1032 0
1027 1085 -1032 0
-1027 -1086 1033 0
1027 1086 -1033 0
-1027 -1087 1034 0
1027 1087 -1034 0
-1027 -1088 1035 0
1027 1088 -1035 0
-1027 -1089 1036 0
1027 1089 -1036 0
-1027 -1090 1037 0
1027 1090 -1037 0
-1027 -1091 1038 0
1027 1091 -1038 0
-1027 -1092 1039 0
1027 1092 -1039 0
-1027 -1093 1040 0
1027 1093 -1040 0
-1027 -1094 1041 0
1027 1094 -1041 0
-1027 -1095 1042 0
1027 1095 -1042 0
-1027 -1096 1043 0
1027 1096 -1043 0
-1027 -1097 1044 0
1027 1097 -1044 0
-1027 -1098 1045 0
1027 1098 -1045 0
-1027 -1099 1046 0
1027 1099 -1046 0
-1027 -1100 1047 0
1027 1100 -1047 0
-1027 -1101 1048 0
1027 1101 -1048 0
-1027 -1102 1049 0
1027 1102 -1049 0
-1027 -1103 1050 0
1027 1103 -1050 0
-1027 -1104 1051 0
1027 1104 -1051 0
-1027 -1105 1052 0
1027 1105 -1052 0
-1027 -1106 1053 0
1027 1106 -1053 0
-1028 -1107 1029 0
1028 1107 -1029 0
-1028 -1108 1030 0
1028 1108 -1030 0
-1028 -1109 1031 0
1028 1109 -1031 0
-1028 -1110 1032 0
1028 1110 -1032 0
-1028 -1111 1033 0
1028 1111 -1033 0
-1028 -1112 1034 0
1028 1112 -1034 0
-1028 -1113 1035 0
1028 1113 -1035 0
-1028 -1114 1036 0
1028 1114 -1036 0
-1028 -1115 1037 0
1028 1115 -1037 0
-1028 -1116 1038 0
1028 1116 -1038 0
-1028 -1117 1039 0
1028 1117 -1039 0
-1028 -1118 1040 0
1028 1118 -1040 0
-1028 -1119 1041 0
1028 1119 -1041 0
-1028 -1120 1042 0
1028 1120 -1042 0
-1028 -1121 1043 0
1028 1121 -1043 0
-1028 -1122 1044 0
1028 1122 -1044 0
-1028 -1123 1045 0
1028 1123 -1045 0
-1028 -1124 1046 0
1028 1124 -1046 0
-1028 -1125 1047 0
1028 1125 -1047 0
-1028 -1126 1048 0
1028 1126 -1048 0
-1028 -1127 1049 0
1028 1127 -1049 0
-1028 -1128 1050 0
1028 1128 -1050 0
-1028 -1129 1051 0
1028 1129 -1051 0
-1028 -1130 1052 0
1028 1130 -1052 0
-1028 -1131 1053 0
1028 1131 -1053 0
-1029 -1132 1030 0
1029 1132 -1030 0
-1029 -1133 1031 0
1029 1133 -1031 0
-1029 -1134 1032 0
1029 1134 -1032 0
-1029 -1135 1033 0
1029 1135 -1033 0
-1029 -1136 1034 0
1029 1136 -1034 0
-1029 -1137 1035 0
1029 1137 -1035 0
-1029 -1138 1036 0
1029 1138 -1036 0
-1029 -1139 1037 0
1029 1139 -1037 0
-1029 -1140 1038 0
1029 1140 -1038 0
-1029 -1141 1039 0
1029 1141 -1039 0
-1029 -1142 1040 0
1029 1142 -1040 0
-1029 -1143 1041 0
1029 1143 -1041 0
-1029 -1144 1042 0
1029 1144 -1042 0
-1029 -1145 1043 0
1029 1145 -1043 0
-1029 -1146 1044 0
1029 1146 -1044 0
-1029 -1147 1045 0
1029 1147 -1045 0
-1029 -1148 1046 0
1029 1148 -1046 0
-1029 -1149 1047 0
1029 1149 -1047 0
-1029 -1150 1048 0
1029 1150 -1048 0
-1029 -1151 1049 0
1029 1151 -1049 0
-1029 -1152 1050 0
1029 1152 -1050 0
-1029 -1153 1051 0
1029 1153 -1051 0
-1029 -1154 1052 0
1029 1154 -1052 0
-1029 -1155 1053 0
1029 1155 -1053 0
-1030 -1156 1031 0
1030 1156 -1031 0
-1030 -1157 1032 0
1030 1157 -1032 0
-1030 -1158 1033 0
1030 1158 -1033 0
-1030 -1159 1034 0
1030 1159 -1034 0
-1030 -1160 1035 0
1030 1160 -1035 0
-1030 -1161 1036 0
1030 1161 -1036 0
-1030 -1162 1037 0
1030 1162 -1037 0
-1030 -1163 1038 0
1030 1163 -1038 0
-1030 -1164 1039 0
1030 1164 -1039 0
-1030 -1165 1040 0
1030 1165 -1040 0
-1030 -1166 1041 0
1030 1166 -1041 0
-1030 -1167 1042 0
1030 1167 -1042 0
-1030 -1168 1043 0
1030 1168 -1043 0
-1030 -1169 1044 0
1030 1169 -1044 0
-1030 -1170 1045 0
1030 1170 -1045 0
-1030 -1171 1046 0
1030 1171 -1046 0
-1030 -1172 1047 0
1030 1172 -1047 0
-1030 -1173 1048 0
1030 1173 -1048 0
-1030 -1174 1049 0
1030 1174 -1049 0
-1030 -1175 1050 0
1030 1175 -1050 0
-1030 -1176 1051 0
1030 1176 -1051 0
-1030 -1177 1052 0
1030 1177 -1052 0
-1030 -1178 1053 0
1030 1178 -1053 0
-1031 -1179 1032 0
1031 1179 -1032 0
-1031 -1180 1033 0
1031 1180 -1033 0
-1031 -1181 1034 0
1031 1181 -1034 0
-1031 -1182 1035 0
1031 1182 -1035 0
-1031 -1183 1036 0
1031 1183 -1036 0
-1031 -1184 1037 0
1031 1184 -1037 0
-1031 -1185 1038 0
1031 1185 -1038 0
-1031 -1186 1039 0
1031 1186 -1039 0
-1031 -1187 1040 0
1031 1187 -1040 0
-1031 -1188 1041 0
1031 1188 -1041 0
-1031 -1189 1042 0
1031 1189 -1042 0
-1031 -1190 1043 0
1031 1190 -1043 0
-1031 -1191 1044 0
1031 1191 -1044 0
-1031 -1192 1045 0
1031 1192 -1045 0
-1031 -1193 1046 0
1031 1193 -1046 0
-1031 -1194 1047 0
1031 1194 -1047 0
-1031 -1195 1048 0
1031 1195 -1048 0
-1031 -1196 1049 0
1031 1196 -1049 0
-1031 -1197 1050 0
1031 1197 -1050 0
-1031 -1198 1051 0
1031 1198 -1051 0
-1031 -1199 1052 0
1031 1199 -1052 0
-1031 -1200 1053 0
1031 1200 -1053 0
-1032 -1201 1033 0
1032 1201 -1033 0
-1032 -1202 1034 0
1032 1202 -1034 0
-1032 -1203 1035 0
1032 1203 -1035 0
-1032 -1204 1036 0
1032 1204 -1036 0
-1032 -1205 1037 0
1032 1205 -1037 0
-1032 -1206 1038 0
1032 1206 -1038 0
-1032 -1207 1039 0
1032 1207 -1039 0
-1032 -1208 1040 0
1032 1208 -1040 0
-1032 -1209 1041 0
1032 1209 -1041 0
-1032 -1210 1042 0
1032 1210 -1042 0
-1032 -1211 1043 0
1032 1211 -1043 0
-1032 -1212 1044 0
1032 1212 -1044 0
-1032 -1213 1045 0
1032 1213 -1045 0
-1032 -1214 1046 0
1032 1214 -1046 0
-1032 -1215 1047 0
1032 1215 -1047 0
-1032 -1216 1048 0
1032 1216 -1048 0
-1032 -1217 1049 0
1032 1217 -1049 0
-1032 -1218 1050 0
1032 1218 -1050 0
-1032 -1219 1051 0
1032 1219 -1051 0
-1032 -1220 1052 0
1032 1220 -1052 0
-1032 -1221 1053 0
1032 1221 -1053 0
-1033 -1222 1034 0
1033 1222 -1034 0
-1033 -1223 1035 0
1033 1223 -1035 0
-1033 -1224 1036 0
1033 1224 -1036 0
-1033 -1225 1037 0
1033 1225 -1037 0
-1033 -1226 1038 0
1033 1226 -1038 0
-1033 -1227 1039 0
1033 1227 -1039 0
-1033 -1228 1040 0
1033 1228 -1040 0
-1033 -1229 1041 0
1033 1229 -1041 0
-1033 -1230 1042 0
1033 1230 -1042 0
-1033 -1231 1043 0
1033 1231 -1043 0
-1033 -1232 1044 0
1033 1232 -1044 0
-1033 -1233 1045 0
1033 1233 -1045 0
-1033 -1234 1046 0
1033 1234 -1046 0
-1033 -1235 1047 0
1033 1235 -1047 0
-1033 -1236 1048 0
1033 1236 -1048 0
-1033 -1237 1049 0
1033 1237 -1049 0
-1033 -1238 1050 0
1033 1238 -1050 0
-1033 -1239 1051 0
1033 1239 -1051 0
-1033 -1240 1052 0
1033 1240 -1052 0
-1033 -1241 1053 0
1033 1241 -1053 0
-1034 -1242 1035 0
1034 1242 -1035 0
-1034 -1243 1036 0
1034 1243 -1036 0
-1034 -1244 1037 0
1034 1244 -1037 0
-1034 -1245 1038 0
1034 1245 -1038 0
-1034 -1246 1039 0
1034 1246 -1039 0
-1034 -1247 1040 0
1034 1247 -1040 0
-1034 -1248 1041 0
1034 1248 -1041 0
-1034 -1249 1042 0
1034 1249 -1042 0
-1034 -1250 1043 0
1034 1250 -1043 0
-1034 -1251 1044 0
1034 1251 -1044 0
-1034 -1252 1045 0
1034 1252 -1045 0
-1034 -1253 1046 0
1034 1253 -1046 0
-1034 -1254 1047 0
1034 1254 -1047 0
-1034 -1255 1048 0
1034 1255 -1048 0
-1034 -1256 1049 0
1034 1256 -1049 0
-1034 -1257 1050 0
1034 1257 -1050 0
-1034 -1258 1051 0
1034 1258 -1051 0
-1034 -1259 1052 0
1034 1259 -1052 0
-1034 -1260 1053 0
1034 1260 -1053 0
-1035 -1261 1036 0
1035 1261 -1036 0
-1035 -1262 1037 0
1035 1262 -1037 0
-1035 -1263 1038 0
1035 1263 -1038 0
-1035 -1264 1039 0
1035 1264 -1039 0
-1035 -1265 1040 0
1035 1265 -1040 0
-1035 -1266 1041 0
1035 1266 -1041 0
-1035 -1267 1042 0
1035 1267 -1042 0
-1035 -1268 1043 0
1035 1268 -1043 0
-1035 -1269 1044 0
1035 1269 -1044 0
-1035 -1270 1045 0
1035 1270 -1045 0
-1035 -1271 1046 0
1035 1271 -1046 0
-1035 -1272 1047 0
1035 1272 -1047 0
-1035 -1273 1048 0
1035 1273 -1048 0
-1035 -1274 1049 0
1035 1274 -1049 0
-1035 -1275 1050 0
1035 1275 -1050 0
-1035 -1276 1051 0
1035 1276 -1051 0
-1035 -1277 1052 0
1035 1277 -1052 0
-1035 -1278 1053 0
1035 1278 -1053 0
-1036 -1279 1037 0
1036 1279 -1037 0
-1036 -1280 1038 0
1036 1280 -1038 0
-1036 -1281 1039 0
1036 1281 -1039 0
-1036 -1282 1040 0
1036 1282 -1040 0
-1036 -1283 1041 0
1036 1283 -1041 0
-1036 -1284 1042 0
1036 1284 -1042 0
-1036 -1285 1043 0
1036 1285 -1043 0
-1036 -1286 1044 0
1036 1286 -1044 0
-1036 -1287 1045 0
1036 1287 -1045 0
-1036 -1288 1046 0
1036 1288 -1046 0
-1036 -1289 1047 0
1036 1289 -1047 0
-1036 -1290 1048 0
1036 1290 -1048 0
-1036 -1291 1049 0
1036 1291 -1049 0
-1036 -1292 1050 0
1036 1292 -1050 0
-1036 -1293 1051 0
1036 1293 -1051 0
-1036 -1294 1052 0
1036 1294 -1052 0
-1036 -1295 1053 0
1036 1295 -1053 0
-1037 -1296 1038 0
1037 1296 -1038 0
-1037 -1297 1039 0
1037 1297 -1039 0
-1037 -1298 1040 0
1037 1298 -1040 0
-1037 -1299 1041 0
1037 1299 -1041 0
-1037 -1300 1042 0
1037 1300 -1042 0
-1037 -1301 1043 0
1037 1301 -1043 0
-1037 -1302 1044 0
1037 1302 -1044 0
-1037 -1303 1045 0
1037 1303 -1045 0
-1037 -1304 1046 0
1037 1304 -1046 0
-1037 -1305 1047 0
1037 1305 -1047 0
-1037 -1306 1048 0
1037 1306 -1048 0
-1037 -1307 1049 0
1037 1307 -1049 0
-1037 -1308 1050 0
1037 1308 -1050 0
-1037 -1309 1051 0
1037 1309 -1051 0
-1037 -1310 1052 0
1037 1310 -1052 0
-1037 -1311 1053 0
1037 1311 -1053 0
-1038 -1312 1039 0
1038 1312 -1039 0
-1038 -1313 1040 0
1038 1313 -1040 0
-1038 -1314 1041 0
1038 1314 -1041 0
-1038 -1315 1042 0
1038 1315 -1042 0
-1038 -1316 1043 0
1038 1316 -1043 0
-1038 -1317 1044 0
1038 1317 -1044 0
-1038 -1318 1045 0
1038 1318 -1045 0
-1038 -1319 1046 0
1038 1319 -1046 0
-1038 -1320 1047 0
1038 1320 -1047 0
-1038 -1321 1048 0
1038 1321 -1048 0
-1038 -1322 1049 0
1038 1322 -1049 0
-1038 -1323 1050 0
1038 1323 -1050 0
-1038 -1324 1051 0
1038 1324 -1051 0
-1038 -1325 1052 0
1038 1325 -1052 0
-1038 -1326 1053 0
1038 1326 -1053 0
-1039 -1327 1040 0
1039 1327 -1040 0
-1039 -1328 1041 0
1039 1328 -1041 0
-1039 -1329 1042 0
1039 1329 -1042 0
-1039 -1330 1043 0
1039 1330 -1043 0
-1039 -1331 1044 0
1039 1331 -1044 0
-1039 -1332 1045 0
1039 1332 -1045 0
-1039 -1333 1046 0
1039 1333 -1046 0
-1039 -1334 1047 0
1039 1334 -1047 0
-1039 -1335 1048 0
1039 1335 -1048 0
-1039 -1336 1049 0
1039 1336 -1049 0
-1039 -1337 1050 0
1039 1337 -1050 0
-1039 -1338 1051 0
1039 1338 -1051 0
-1039 -1339 1052 0
1039 1339 -1052 0
-1039 -1340 1053 0
1039 1340 -1053 0
-1040 -1341 1041 0
1040 1341 -1041 0
-1040 -1342 1042 0
1040 1342 -1042 0
-1040 -1343 1043 0
1040 1343 -1043 0
-1040 -1344 1044 0
1040 1344 -1044 0
-1040 -1345 1045 0
1040 1345 -1045 0
-1040 -1346 1046 0
1040 1346 -1046 0
-1040 -1347 1047 0
1040 1347 -1047 0
-1040 -1348 1048 0
1040 1348 -1048 0
-1040 -1349 1049 0
1040 1349 -1049 0
-1040 -1350 1050 0
1040 1350 -1050 0
-1040 -1351 1051 0
1040 1351 -1051 0
-1040 -1352 1052 0
1040 1352 -1052 0
-1040 -1353 1053 0
1040 1353 -1053 0
-1041 -1354 1042 0
1041 1354 -1042 0
-1041 -1355 1043 0
1041 1355 -1043 0
-1041 -1356 1044 0
1041 1356 -1044 0
-1041 -1357 1045 0
1041 1357 -1045 0
-1041 -1358 1046 0
1041 1358 -1046 0
-1041 -1359 1047 0
1041 1359 -1047 0
-1041 -1360 1048 0
1041 1360 -1048 0
-1041 -1361 1049 0
1041 1361 -1049 0
-1041 -1362 1050 0
1041 1362 -1050 0
-1041 -1363 1051 0
1041 1363 -1051 0
-1041 -1364 1052 0
1041 1364 -1052 0
-1041 -1365 1053 0
1041 1365 -1053 0
-1042 -1366 1043 0
1042 1366 -1043 0
-1042 -1367 1044 0
1042 1367 -1044 0
-1042 -1368 1045 0
1042 1368 -1045 0
-1042 -1369 1046 0
1042 1369 -1046 0
-1042 -1370 1047 0
1042 1370 -1047 0
-1042 -1371 1048 0
1042 1371 -1048 0
-1042 -1372 1049 0
1042 1372 -1049 0
-1042 -1373 1050 0
1042 1373 -1050 0
-1042 -1374 1051 0
1042 1374 -1051 0
-1042 -1375 1052 0
1042 1375 -1052 0
-1042 -1376 1053 0
1042 1376 -1053 0
-1043 -1377 1044 0
1043 1377 -1044 0
-1043 -1378 1045 0
1043 1378 -1045 0
-1043 -1379 1046 0
1043 1379 -1046 0
-1043 -1380 1047 0
1043 1380 -1047 0
-1043 -1381 1048 0
1043 1381 -1048 0
-1043 -1382 1049 0
1043 1382 -1049 0
-1043 -1383 1050 0
1043 1383 -1050 0
-1043 -1384 1051 0
1043 1384 -1051 0
-1043 -1385 1052 0
1043 1385 -1052 0
-1043 -1386 1053 0
1043 1386 -1053 0
-1044 -1387 1045 0
1044 1387 -1045 0
-1044 -1388 1046 0
1044 1388 -1046 0
-1044 -1389 1047 0
1044 1389 -1047 0
-1044 -1390 1048 0
1044 1390 -1048 0
-1044 -1391 1049 0
1044 1391 -1049 0
-1044 -1392 1050 0
1044 1392 -1050 0
-1044 -1393 1051 0
1044 1393 -1051 0
-1044 -1394 1052 0
1044 1394 -1052 0
-1044 -1395 1053 0
1044 1395 -1053 0
-1045 -1396 1046 0
1045 1396 -1046 0
-1045 -1397 1047 0
1045 1397 -1047 0
-1045 -1398 1048 0
1045 1398 -1048 0
-1045 -1399 1049 0
1045 1399 -1049 0
-1045 -1400 1050 0
1045 1400 -1050 0
-1045 -1401 1051 0
1045 1401 -1051 0
-1045 -1402 1052 0
1045 1402 -1052 0
-1045 -1403 1053 0
1045 1403 -1053 0
-1046 -1404 1047 0
1046 1404 -1047 0
-1046 -1405 1048 0
1046 1405 -1048 0
-1046 -1406 1049 0
1046 1406 -1049 0
-1046 -1407 1050 0
1046 1407 -1050 0
-1046 -1408 1051 0
1046 1408 -1051 0
-1046 -1409 1052 0
1046 1409 -1052 0
-1046 -1410 1053 0
1046 1410 -1053 0
-1047 -1411 1048 0
1047 1411 -1048 0
-1047 -1412 1049 0
1047 1412 -1049 0
-1047 -1413 1050 0
1047 1413 -1050 0
-1047 -1414 1051 0
1047 1414 -1051 0
-1047 -1415 1052 0
1047 1415 -1052 0
-1047 -1416 1053 0
1047 1416 -1053 0
-1048 -1417 1049 0
1048 1417 -1049 0
-1048 -1418 1050 0
1048 1418 -1050 0
-1048 -1419 1051 0
1048 1419 -1051 0
-1048 -1420 1052 0
1048 1420 -1052 0
-1048 -1421 1053 0
1048 1421 -1053 0
-1049 -1422 1050 0
1049 1422 -1050 0
-1049 -1423 1051 0
1049 1423 -1051 0
-1049 -1424 1052 0
1049 1424 -1052 0
-1049 -1425 1053 0
1049 1425 -1053 0
-1050 -1426 1051 0
1050 1426 -1051 0
-1050 -1427 1052 0
1050 1427 -1052 0
-1050 -1428 1053 0
1050 1428 -1053 0
-1051 -1429 1052 0
1051 1429 -1052 0
-1051 -1430 1053 0
1051 1430 -1053 0
-1052 -1431 1053 0
1052 1431 -1053 0
-1054 -1081 1055 0
1054 1081 -1055 0
-1054 -1082 1056 0
1054 1082 -1056 0
-1054 -1083 1057 0
1054 1083 -1057 0
-1054 -1084 1058 0
1054 1084 -1058 0
-1054 -1085 1059 0
1054 1085 -1059 0
-1054 -1086 1060 0
1054 1086 -1060 0
-1054 -1087 1061 0
1054 1087 -1061 0
-1054 -1088 1062 0
1054 1088 -1062 0
-1054 -1089 1063 0
1054 1089 -1063 0
-1054 -1090 1064 0
1054 1090 -1064 0
-1054 -1091 1065 0
1054 1091 -1065 0
-1054 -1092 1066 0
1054 1092 -1066 0
-1054 -1093 1067 0
1054 1093 -1067 0
-1054 -1094 1068 0
1054 1094 -1068 0
-1054 -1095 1069 0
1054 1095 -1069 0
-1054 -1096 1070 0
1054 1096 -1070 0
-1054 -1097 1071 0
1054 1097 -1071 0
-1054 -1098 1072 0
1054 1098 -1072 0
-1054 -1099 1073 0
1054 1099 -1073 0
-1054 -1100 1074 0
1054 1100 -1074 0
-1054 -1101 1075 0
1054 1101 -1075 0
-1054 -1102 1076 0
1054 1102 -1076 0
-1054 -1103 1077 0
1054 1103 -1077 0
-1054 -1104 1078 0
1054 1104 -1078 0
-1054 -1105 1079 0
1054 1105 -1079 0
-1054 -1106 1080 0
1054 1106 -1080 0
-1055 -1107 1056 0
1055 1107 -1056 0
-1055 -1108 1057 0
1055 1108 -1057 0
-1055 -1109 1058 0
1055 1109 -1058 0
-1055 -1110 1059 0
1055 1110 -1059 0
-1055 -1111 1060 0
1055 1111 -1060 0
-1055 -1112 1061 0
1055 1112 -1061 0
-1055 -1113 1062 0
1055 1113 -1062 0
-1055 -1114 1063 0
1055 1114 -1063 0
-1055 -1115 1064 0
1055 1115 -1064 0
-1055 -1116 1065 0
1055 1116 -1065 0
-1055 -1117 1066 0
1055 1117 -1066 0
-1055 -1118 1067 0
1055 1118 -1067 0
-1055 -1119 1068 0
1055 1119 -1068 0
-1055 -1120 1069 0
1055 1120 -1069 0
-1055 -1121 1070 0
1055 1121 -1070 0
-1055 -1122 1071 0
1055 1122 -1071 0
-1055 -1123 1072 0
1055 1123 -1072 0
-1055 -1124 1073 0
1055 1124 -1073 0
-1055 -1125 1074 0
1055 1125 -1074 0
-1055 -1126 1075 0
1055 1126 -1075 0
-1055 -1127 1076 0
1055 1127 -1076 0
-1055 -1128 1077 0
1055 1128 -1077 0
-1055 -1129 1078 0
1055 1129 -1078 0
-1055 -1130 1079 0
1055 1130 -1079 0
-1055 -1131 1080 0
1055 1131 -1080 0
-1056 -1132 1057 0
1056 1132 -1057 0
-1056 -1133 1058 0
1056 1133 -1058 0
-1056 -1134 1059 0
1056 1134 -1059 0
-1056 -1135 1060 0
1056 1135 -1060 0
-1056 -1136 1061 0
1056 1136 -1061 0
-1056 -1137 1062 0
1056 1137 -1062 0
-1056 -1138 1063 0
1056 1138 -1063 0
-1056 -1139 1064 0
1056 1139 -1064 0
-1056 -1140 1065 0
1056 1140 -1065 0
-1056 -1141 1066 0
1056 1141 -1066 0
-1056 -1142 1067 0
1056 1142 -1067 0
-1056 -1143 1068 0
1056 1143 -1068 0
-1056 -1144 1069 0
1056 1144 -1069 0
-1056 -1145 1070 0
1056 1145 -1070 0
-1056 -1146 1071 0
1056 1146 -1071 0
-1056 -1147 1072 0
1056 1147 -1072 0
-1056 -1148 1073 0
1056 1148 -1073 0
-1056 -1149 1074 0
1056 1149 -1074 0
-1056 -1150 1075 0
1056 1150 -1075 0
-1056 -1151 1076 0
1056 1151 -1076 0
-1056 -1152 1077 0
1056 1152 -1077 0
-1056 -1153 1078 0
1056 1153 -1078 0
-1056 -1154 1079 0
1056 1154 -1079 0
-1056 -1155 1080 0
1056 1155 -1080 0
-1057 -1156 1058 0
1057 1156 -1058 0
-1057 -1157 1059 0
1057 1157 -1059 0
-1057 -1158 1060 0
1057 1158 -1060 0
-1057 -1159 1061 0
1057 1159 -1061 0
-1057 -1160 1062 0
1057 1160 -1062 0
-1057 -1161 1063 0
1057 1161 -1063 0
-1057 -1162 1064 0
1057 1162 -1064 0
-1057 -1163 1065 0
1057 1163 -1065 0
-1057 -1164 1066 0
1057 1164 -1066 0
-1057 -1165 1067 0
1057 1165 -1067 0
-1057 -1166 1068 0
1057 1166 -1068 0
-1057 -1167 1069 0
1057 1167 -1069 0
-1057 -1168 1070 0
1057 1168 -1070 0
-1057 -1169 1071 0
1057 1169 -1071 0
-1057 -1170 1072 0
1057 1170 -1072 0
-1057 -1171 1073 0
1057 1171 -1073 0
-1057 -1172 1074 0
1057 1172 -1074 0
-1057 -1173 1075 0
1057 1173 -1075 0
-1057 -1174 1076 0
1057 1174 -1076 0
-1057 -1175 1077 0
1057 1175 -1077 0
-1057 -1176 1078 0
1057 1176 -1078 0
-1057 -1177 1079 0
1057 1177 -1079 0
-1057 -1178 1080 0
1057 1178 -1080 0
-1058 -1179 1059 0
1058 1179 -1059 0
-1058 -1180 1060 0
1058 1180 -1060 0
-1058 -1181 1061 0
1058 1181 -1061 0
-1058 -1182 1062 0
1058 1182 -1062 0
-1058 -1183 1063 0
1058 1183 -1063 0
-1058 -1184 1064 0
1058 1184 -1064 0
-1058 -1185 1065 0
1058 1185 -1065 0
-1058 -1186 1066 0
1058 1186 -1066 0
-1058 -1187 1067 0
1058 1187 -1067 0
-1058 -1188 1068 0
1058 1188 -1068 0
-1058 -1189 1069 0
1058 1189 -1069 0
-1058 -1190 1070 0
1058 1190 -1070 0
-1058 -1191 1071 0
1058 1191 -1071 0
-1058 -1192 1072 0
1058 1192 -1072 0
-1058 -1193 1073 0
1058 1193 -1073 0
-1058 -1194 1074 0
1058 1194 -1074 0
-1058 -1195 1075 0
1058 1195 -1075 0
-1058 -1196 1076 0
1058 1196 -1076 0
-1058 -1197 1077 0
1058 1197 -1077 0
-1058 -1198 1078 0
1058 1198 -1078 0
-1058 -1199 1079 0
1058 1199 -1079 0
-1058 -1200 1080 0
1058 1200 -1080 0
-1059 -1201 1060 0
1059 1201 -1060 0
-1059 -1202 1061 0
1059 1202 -1061 0
-1059 -1203 1062 0
1059 1203 -1062 0
-1059 -1204 1063 0
1059 1204 -1063 0
-1059 -1205 1064 0
1059 1205 -1064 0
-1059 -1206 1065 0
1059 1206 -1065 0
-1059 -1207 1066 0
1059 1207 -1066 0
-1059 -1208 1067 0
1059 1208 -1067 0
-1059 -1209 1068 0
1059 1209 -1068 0
-1059 -1210 1069 0
1059 1210 -1069 0
-1059 -1211 1070 0
1059 1211 -1070 0
-1059 -1212 1071 0
1059 1212 -1071 0
-1059 -1213 1072 0
1059 1213 -1072 0
-1059 -1214 1073 0
1059 1214 -1073 0
-1059 -1215 1074 0
1059 1215 -1074 0
-1059 -1216 1075 0
1059 1216 -1075 0
-1059 -1217 1076 0
1059 1217 -1076 0
-1059 -1218 1077 0
1059 1218 -1077 0
-1059 -1219 1078 0
1059 1219 -1078 0
-1059 -1220 1079 0
1059 1220 -1079 0
-1059 -1221 1080 0
1059 1221 -1080 0
-1060 -1222 1061 0
1060 1222 -1061 0
-1060 -1223 1062 0
1060 1223 -1062 0
-1060 -1224 1063 0
1060 1224 -1063 0
-1060 -1225 1064 0
1060 1225 -1064 0
-1060 -1226 1065 0
1060 1226 -1065 0
-1060 -1227 1066 0
1060 1227 -1066 0
-1060 -1228 1067 0
1060 1228 -1067 0
-1060 -1229 1068 0
1060 1229 -1068 0
-1060 -1230 1069 0
1060 1230 -1069 0
-1060 -1231 1070 0
1060 1231 -1070 0
-1060 -1232 1071 0
1060 1232 -1071 0
-1060 -1233 1072 0
1060 1233 -1072 0
-1060 -1234 1073 0
1060 1234 -1073 0
-1060 -1235 1074 0
1060 1235 -1074 0
-1060 -1236 1075 0
1060 1236 -1075 0
-1060 -1237 1076 0
1060 1237 -1076 0
-1060 -1238 1077 0
1060 1238 -1077 0
-1060 -1239 1078 0
1060 1239 -1078 0
-1060 -1240 1079 0
1060 1240 -1079 0
-1060 -1241 1080 0
1060 1241 -1080 0
-1061 -1242 1062 0
1061 1242 -1062 0
-1061 -1243 1063 0
1061 1243 -1063 0
-1061 -1244 1064 0
1061 1244 -1064 0
-1061 -1245 1065 0
1061 1245 -1065 0
-1061 -1246 1066 0
1061 1246 -1066 0
-1061 -1247 1067 0
1061 1247 -1067 0
-1061 -1248 1068 0
1061 1248 -1068 0
-1061 -1249 1069 0
1061 1249 -1069 0
-1061 -1250 1070 0
1061 1250 -1070 0
-1061 -1251 1071 0
1061 1251 -1071 0
-1061 -1252 1072 0
1061 1252 -1072 0
-1061 -1253 1073 0
1061 1253 -1073 0
-1061 -1254 1074 0
1061 1254 -1074 0
-1061 -1255 1075 0
1061 1255 -1075 0
-1061 -1256 1076 0
1061 1256 -1076 0
-1061 -1257 1077 0
1061 1257 -1077 0
-1061 -1258 1078 0
1061 1258 -1078 0
-1061 -1259 1079 0
1061 1259 -1079 0
-1061 -1260 1080 0
1061 1260 -1080 0
-1062 -1261 1063 0
1062 1261 -1063 0
-1062 -1262 1064 0
1062 1262 -1064 0
-1062 -1263 1065 0
1062 1263 -1065 0
-1062 -1264 1066 0
1062 1264 -1066 0
-1062 -1265 1067 0
1062 1265 -1067 0
-1062 -1266 1068 0
1062 1266 -1068 0
-1062 -1267 1069 0
1062 1267 -1069 0
-1062 -1268 1070 0
1062 1268 -1070 0
-1062 -1269 1071 0
1062 1269 -1071 0
-1062 -1270 1072 0
1062 1270 -1072 0
-1062 -1271 1073 0
1062 1271 -1073 0
-1062 -1272 1074 0
1062 1272 -1074 0
-1062 -1273 1075 0
1062 1273 -1075 0
-1062 -1274 1076 0
1062 1274 -1076 0
-1062 -1275 1077 0
1062 1275 -1077 0
-1062 -1276 1078 0
1062 1276 -1078 0
-1062 -1277 1079 0
1062 1277 -1079 0
-1062 -1278 1080 0
1062 1278 -1080 0
-1063 -1279 1064 0
1063 1279 -1064 0
-1063 -1280 1065 0
1063 1280 -1065 0
-1063 -1281 1066 0
1063 1281 -1066 0
-1063 -1282 1067 0
1063 1282 -1067 0
-1063 -1283 1068 0
1063 1283 -1068 0
-1063 -1284 1069 0
1063 1284 -1069 0
-1063 -1285 1070 0
1063 1285 -1070 0
-1063 -1286 1071 0
1063 1286 -1071 0
-1063 -1287 1072 0
1063 1287 -1072 0
-1063 -1288 1073 0
1063 1288 -1073 0
-1063 -1289 1074 0
1063 1289 -1074 0
-1063 -1290 1075 0
1063 1290 -1075 0
-1063 -1291 1076 0
1063 1291 -1076 0
-1063 -1292 1077 0
1063 1292 -1077 0
-1063 -1293 1078 0
1063 1293 -1078 0
-1063 -1294 1079 0
1063 1294 -1079 0
-1063 -1295 1080 0
1063 1295 -1080 0
-1064 -1296 1065 0
1064 1296 -1065 0
-1064 -1297 1066 0
1064 1297 -1066 0
-1064 -1298 1067 0
1064 1298 -1067 0
-1064 -1299 1068 0
1064 1299 -1068 0
-1064 -1300 1069 0
1064 1300 -1069 0
-1064 -1301 1070 0
1064 1301 -1070 0
-1064 -1302 1071 0
1064 1302 -1071 0
-1064 -1303 1072 0
1064 1303 -1072 0
-1064 -1304 1073 0
1064 1304 -1073 0
-1064 -1305 1074 0
1064 1305 -1074 0
-1064 -1306 1075 0
1064 1306 -1075 0
-1064 -1307 1076 0
1064 1307 -1076 0
-1064 -1308 1077 0
1064 1308 -1077 0
-1064 -1309 1078 0
1064 1309 -1078 0
-1064 -1310 1079 0
1064 1310 -1079 0
-1064 -1311 1080 0
1064 1311 -1080 0
-1065 -1312 1066 0
1065 1312 -1066 0
-1065 -1313 1067 0
1065 1313 -1067 0
-1065 -1314 1068 0
1065 1314 -1068 0
-1065 -1315 1069 0
1065 1315 -1069 0
-1065 -1316 1070 0
1065 1316 -1070 0
-1065 -1317 1071 0
1065 1317 -1071 0
-1065 -1318 1072 0
1065 1318 -1072 0
-1065 -1319 1073 0
1065 1319 -1073 0
-1065 -1320 1074 0
1065 1320 -1074 0
-1065 -1321 1075 0
1065 1321 -1075 0
-1065 -1322 1076 0
1065 1322 -1076 0
-1065 -1323 1077 0
1065 1323 -1077 0
-1065 -1324 1078 0
1065 1324 -1078 0
-1065 -1325 1079 0
1065 1325 -1079 0
-1065 -1326 1080 0
1065 1326 -1080 0
-1066 -1327 1067 0
1066 1327 -1067 0
-1066 -1328 1068 0
1066 1328 -1068 0
-1066 -1329 1069 0
1066 1329 -1069 0
-1066 -1330 1070 0
1066 1330 -1070 0
-1066 -1331 1071 0
1066 1331 -1071 0
-1066 -1332 1072 0
1066 1332 -1072 0
-1066 -1333 1073 0
1066 1333 -1073 0
-1066 -1334 1074 0
1066 1334 -1074 0
-1066 -1335 1075 0
1066 1335 -1075 0
-1066 -1336 1076 0
1066 1336 -1076 0
-1066 -1337 1077 0
1066 1337 -1077 0
-1066 -1338 1078 0
1066 1338 -1078 0
-1066 -1339 1079 0
1066 1339 -1079 0
-1066 -1340 1080 0
1066 1340 -1080 0
-1067 -1341 1068 0
1067 1341 -1068 0
-1067 -1342 1069 0
1067 1342 -1069 0
-1067 -1343 1070 0
1067 1343 -1070 0
-1067 -1344 1071 0
1067 1344 -1071 0
-1067 -1345 1072 0
1067 1345 -1072 0
-1067 -1346 1073 0
1067 1346 -1073 0
-1067 -1347 1074 0
1067 1347 -1074 0
-1067 -1348 1075 0
1067 1348 -1075 0
-1067 -1349 1076 0
1067 1349 -1076 0
-1067 -1350 1077 0
1067 1350 -1077 0
-1067 -1351 1078 0
1067 1351 -1078 0
-1067 -1352 1079 0
1067 1352 -1079 0
-1067 -1353 1080 0
1067 1353 -1080 0
-1068 -1354 1069 0
1068 1354 -1069 0
-1068 -1355 1070 0
1068 1355 -1070 0
-1068 -1356 1071 0
1068 1356 -1071 0
-1068 -1357 1072 0
1068 1357 -1072 0
-1068 -1358 1073 0
1068 1358 -1073 0
-1068 -1359 1074 0
1068 1359 -1074 0
-1068 -1360 1075 0
1068 1360 -1075 0
-1068 -1361 1076 0
1068 1361 -1076 0
-1068 -1362 1077 0
1068 1362 -1077 0
-1068 -1363 1078 0
1068 1363 -1078 0
-1068 -1364 1079 0
1068 1364 -1079 0
-1068 -1365 1080 0
1068 1365 -1080 0
-1069 -1366 1070 0
1069 1366 -1070 0
-1069 -1367 1071 0
1069 1367 -1071 0
-1069 -1368 1072 0
1069 1368 -1072 0
-1069 -1369 1073 0
1069 1369 -1073 0
-1069 -1370 1074 0
1069 1370 -1074 0
-1069 -1371 1075 0
1069 1371 -1075 0
-1069 -1372 1076 0
1069 1372 -1076 0
-1069 -1373 1077 0
1069 1373 -1077 0
-1069 -1374 1078 0
1069 1374 -1078 0
-1069 -1375 1079 0
1069 1375 -1079 0
-1069 -1376 1080 0
1069 1376 -1080 0
-1070 -1377 1071 0
1070 1377 -1071 0
-1070 -1378 1072 0
1070 1378 -1072 0
-1070 -1379 1073 0
1070 1379 -1073 0
-1070 -1380 1074 0
1070 1380 -1074 0
-1070 -1381 1075 0
1070 1381 -1075 0
-1070 -1382 1076 0
1070 1382 -1076 0
-1070 -1383 1077 0
1070 1383 -1077 0
-1070 -1384 1078 0
1070 1384 -1078 0
-1070 -1385 1079 0
1070 1385 -1079 0
-1070 -1386 1080 0
1070 1386 -1080 0
-1071 -1387 1072 0
1071 1387 -1072 0
-1071 -1388 1073 0
1071 1388 -1073 0
-1071 -1389 1074 0
1071 1389 -1074 0
-1071 -1390 1075 0
1071 1390 -1075 0
-1071 -1391 1076 0
1071 1391 -1076 0
-1071 -1392 1077 0
1071 1392 -1077 0
-1071 -1393 1078 0
1071 1393 -1078 0
-1071 -1394 1079 0
1071 1394 -1079 0
-1071 -1395 1080 0
1071 1395 -1080 0
-1072 -1396 1073 0
1072 1396 -1073 0
-1072 -1397 1074 0
1072 1397 -1074 0
-1072 -1398 1075 0
1072 1398 -1075 0
-1072 -1399 1076 0
1072 1399 -1076 0
-1072 -1400 1077 0
1072 1400 -1077 0
-1072 -1401 1078 0
1072 1401 -1078 0
-1072 -1402 1079 0
1072 1402 -1079 0
-1072 -1403 1080 0
1072 1403 -1080 0
-1073 -1404 1074 0
1073 1404 -1074 0
-1073 -1405 1075 0
1073 1405 -1075 0
-1073 -1406 1076 0
1073 1406 -1076 0
-1073 -1407 1077 0
1073 1407 -1077 0
-1073 -1408 1078 0
1073 1408 -1078 0
-1073 -1409 1079 0
1073 1409 -1079 0
-1073 -1410 1080 0
1073 1410 -1080 0
-1074 -1411 1075 0
1074 1411 -1075 0
-1074 -1412 1076 0
1074 1412 -1076 0
-1074 -1413 1077 0
1074 1413 -1077 0
-1074 -1414 1078 0
1074 1414 -1078 0
-1074 -1415 1079 0
1074 1415 -1079 0
-1074 -1416 1080 0
1074 1416 -1080 0
-1075 -1417 1076 0
1075 1417 -1076 0
-1075 -1418 1077 0
1075 1418 -1077 0
-1075 -1419 1078 0
1075 1419 -1078 0
-1075 -1420 1079 0
1075 1420 -1079 0
-1075 -1421 1080 0
1075 1421 -1080 0
-1076 -1422 1077 0
1076 1422 -1077 0
-1076 -1423 1078 0
1076 1423 -1078 0
-1076 -1424 1079 0
1076 1424 -1079 0
-1076 -1425 1080 0
1076 1425 -1080 0
-1077 -1426 1078 0
1077 1426 -1078 0
-1077 -1427 1079 0
1077 1427 -1079 0
-1077 -1428 1080 0
1077 1428 -1080 0
-1078 -1429 1079 0
1078 1429 -1079 0
-1078 -1430 1080 0
1078 1430 -1080 0
-1079 -1431 1080 0
1079 1431 -1080 0
-1081 -1107 1082 0
1081 1107 -1082 0
-1081 -1108 1083 0
1081 1108 -1083 0
-1081 -1109 1084 0
1081 1109 -1084 0
-1081 -1110 1085 0
1081 1110 -1085 0
-1081 -1111 1086 0
1081 1111 -1086 0
-1081 -1112 1087 0
1081 1112 -1087 0
-1081 -1113 1088 0
1081 1113 -1088 0
-1081 -1114 1089 0
1081 1114 -1089 0
-1081 -1115 1090 0
1081 1115 -1090 0
-1081 -1116 1091 0
1081 1116 -1091 0
-1081 -1117 1092 0
1081 1117 -1092 0
-1081 -1118 1093 0
1081 1118 -1093 0
-1081 -1119 1094 0
1081 1119 -1094 0
-1081 -1120 1095 0
1081 1120 -1095 0
-1081 -1121 1096 0
1081 1121 -1096 0
-1081 -1122 1097 0
1081 1122 -1097 0
-1081 -1123 1098 0
1081 1123 -1098 0
-1081 -1124 1099 0
1081 1124 -1099 0
-1081 -1125 1100 0
1081 1125 -1100 0
-1081 -1126 1101 0
1081 1126 -1101 0
-1081 -1127 1102 0
1081 1127 -1102 0
-1081 -1128 1103 0
1081 1128 -1103 0
-1081 -1129 1104 0
1081 1129 -1104 0
-1081 -1130 1105 0
1081 1130 -1105 0
-1081 -1131 1106 0
1081 1131 -1106 0
-1082 -1132 1083 0
1082 1132 -1083 0
-1082 -1133 1084 0
1082 1133 -1084 0
-1082 -1134 1085 0
1082 1134 -1085 0
-1082 -1135 1086 0
1082 1135 -1086 0
-1082 -1136 1087 0
1082 1136 -1087 0
-1082 -1137 1088 0
1082 1137 -1088 0
-1082 -1138 1089 0
1082 1138 -1089 0
-1082 -1139 1090 0
1082 1139 -1090 0
-1082 -1140 1091 0
1082 1140 -1091 0
-1082 -1141 1092 0
1082 1141 -1092 0
-1082 -1142 1093 0
1082 1142 -1093 0
-1082 -1143 1094 0
1082 1143 -1094 0
-1082 -1144 1095 0
1082 1144 -1095 0
-1082 -1145 1096 0
1082 1145 -1096 0
-1082 -1146 1097 0
1082 1146 -1097 0
-1082 -1147 1098 0
1082 1147 -1098 0
-1082 -1148 1099 0
1082 1148 -1099 0
-1082 -1149 1100 0
1082 1149 -1100 0
-1082 -1150 1101 0
1082 1150 -1101 0
-1082 -1151 1102 0
1082 1151 -1102 0
-1082 -1152 1103 0
1082 1152 -1103 0
-1082 -1153 1104 0
1082 1153 -1104 0
-1082 -1154 1105 0
1082 1154 -1105 0
-1082 -1155 1106 0
1082 1155 -1106 0
-1083 -1156 1084 0
1083 1156 -1084 0
-1083 -1157 1085 0
1083 1157 -1085 0
-1083 -1158 1086 0
1083 1158 -1086 0
-1083 -1159 1087 0
1083 1159 -1087 0
-1083 -1160 1088 0
1083 1160 -1088 0
-1083 -1161 1089 0
1083 1161 -1089 0
-1083 -1162 1090 0
1083 1162 -1090 0
-1083 -1163 1091 0
1083 1163 -1091 0
-1083 -1164 1092 0
1083 1164 -1092 0
-1083 -1165 1093 0
1083 1165 -1093 0
-1083 -1166 1094 0
1083 1166 -1094 0
-1083 -1167 1095 0
1083 1167 -1095 0
-1083 -1168 1096 0
1083 1168 -1096 0
-1083 -1169 1097 0
1083 1169 -1097 0
-1083 -1170 1098 0
1083 1170 -1098 0
-1083 -1171 1099 0
1083 1171 -1099 0
-1083 -1172 1100 0
1083 1172 -1100 0
-1083 -1173 1101 0
1083 1173 -1101 0
-1083 -1174 1102 0
1083 1174 -1102 0
-1083 -1175 1103 0
1083 1175 -1103 0
-1083 -1176 1104 0
1083 1176 -1104 0
-1083 -1177 1105 0
1083 1177 -1105 0
-1083 -1178 1106 0
1083 1178 -1106 0
-1084 -1179 1085 0
1084 1179 -1085 0
-1084 -1180 1086 0
1084 1180 -1086 0
-1084 -1181 1087 0
1084 1181 -1087 0
-1084 -1182 1088 0
1084 1182 -1088 0
-1084 -1183 1089 0
1084 1183 -1089 0
-1084 -1184 1090 0
1084 1184 -1090 0
-1084 -1185 1091 0
1084 1185 -1091 0
-1084 -1186 1092 0
1084 1186 -1092 0
-1084 -1187 1093 0
1084 1187 -1093 0
-1084 -1188 1094 0
1084 1188 -1094 0
-1084 -1189 1095 0
1084 1189 -1095 0
-1084 -1190 1096 0
1084 1190 -1096 0
-1084 -1191 1097 0
1084 1191 -1097 0
-1084 -1192 1098 0
1084 1192 -1098 0
-1084 -1193 1099 0
1084 1193 -1099 0
-1084 -1194 1100 0
1084 1194 -1100 0
-1084 -1195 1101 0
1084 1195 -1101 0
-1084 -1196 1102 0
1084 1196 -1102 0
-1084 -1197 1103 0
1084 1197 -1103 0
-1084 -1198 1104 0
1084 1198 -1104 0
-1084 -1199 1105 0
1084 1199 -1105 0
-1084 -1200 1106 0
1084 1200 -1106 0
-1085 -1201 1086 0
1085 1201 -1086 0
-1085 -1202 1087 0
1085 1202 -1087 0
-1085 -1203 1088 0
1085 1203 -1088 0
-1085 -1204 1089 0
1085 1204 -1089 0
-1085 -1205 1090 0
1085 1205 -1090 0
-1085 -1206 1091 0
1085 1206 -1091 0
-1085 -1207 1092 0
1085 1207 -1092 0
-1085 -1208 1093 0
1085 1208 -1093 0
-1085 -1209 1094 0
1085 1209 -1094 0
-1085 -1210 1095 0
1085 1210 -1095 0
-1085 -1211 1096 0
1085 1211 -1096 0
-1085 -1212 1097 0
1085 1212 -1097 0
-1085 -1213 1098 0
1085 1213 -1098 0
-1085 -1214 1099 0
1085 1214 -1099 0
-1085 -1215 1100 0
1085 1215 -1100 0
-1085 -1216 1101 0
1085 1216 -1101 0
-1085 -1217 1102 0
1085 1217 -1102 0
-1085 -1218 1103 0
1085 1218 -1103 0
-1085 -1219 1104 0
1085 1219 -1104 0
-1085 -1220 1105 0
1085 1220 -1105 0
-1085 -1221 1106 0
1085 1221 -1106 0
-1086 -1222 1087 0
1086 1222 -1087 0
-1086 -1223 1088 0
1086 1223 -1088 0
-1086 -1224 1089 0
1086 1224 -1089 0
-1086 -1225 1090 0
1086 1225 -1090 0
-1086 -1226 1091 0
1086 1226 -1091 0
-1086 -1227 1092 0
1086 1227 -1092 0
-1086 -1228 1093 0
1086 1228 -1093 0
-1086 -1229 1094 0
1086 1229 -1094 0
-1086 -1230 1095 0
1086 1230 -1095 0
-1086 -1231 1096 0
1086 1231 -1096 0
-1086 -1232 1097 0
1086 1232 -1097 0
-1086 -1233 1098 0
1086 1233 -1098 0
-1086 -1234 1099 0
1086 1234 -1099 0
-1086 -1235 1100 0
1086 1235 -1100 0
-1086 -1236 1101 0
1086 1236 -1101 0
-1086 -1237 1102 0
1086 1237 -1102 0
-1086 -1238 1103 0
1086 1238 -1103 0
-1086 -1239 1104 0
1086 1239 -1104 0
-1086 -1240 1105 0
1086 1240 -1105 0
-1086 -1241 1106 0
1086 1241 -1106 0
-1087 -1242 1088 0
1087 1242 -1088 0
-1087 -1243 1089 0
1087 1243 -1089 0
-1087 -1244 1090 0
1087 1244 -1090 0
-1087 -1245 1091 0
1087 1245 -1091 0
-1087 -1246 1092 0
1087 1246 -1092 0
-1087 -1247 1093 0
1087 1247 -1093 0
-1087 -1248 1094 0
1087 1248 -1094 0
-1087 -1249 1095 0
1087 1249 -1095 0
-1087 -1250 1096 0
1087 1250 -1096 0
-1087 -1251 1097 0
1087 1251 -1097 0
-1087 -1252 1098 0
1087 1252 -1098 0
-1087 -1253 1099 0
1087 1253 -1099 0
-1087 -1254 1100 0
1087 1254 -1100 0
-1087 -1255 1101 0
1087 1255 -1101 0
-1087 -1256 1102 0
1087 1256 -1102 0
-1087 -1257 1103 0
1087 1257 -1103 0
-1087 -1258 1104 0
1087 1258 -1104 0
-1087 -1259 1105 0
1087 1259 -1105 0
-1087 -1260 1106 0
1087 1260 -1106 0
-1088 -1261 1089 0
1088 1261 -1089 0
-1088 -1262 1090 0
1088 1262 -1090 0
-1088 -1263 1091 0
1088 1263 -1091 0
-1088 -1264 1092 0
1088 1264 -1092 0
-1088 -1265 1093 0
1088 1265 -1093 0
-1088 -1266 1094 0
1088 1266 -1094 0
-1088 -1267 1095 0
1088 1267 -1095 0
-1088 -1268 1096 0
1088 1268 -1096 0
-1088 -1269 1097 0
1088 1269 -1097 0
-1088 -1270 1098 0
1088 1270 -1098 0
-1088 -1271 1099 0
1088 1271 -1099 0
-1088 -1272 1100 0
1088 1272 -1100 0
-1088 -1273 1101 0
1088 1273 -1101 0
-1088 -1274 1102 0
1088 1274 -1102 0
-1088 -1275 1103 0
1088 1275 -1103 0
-1088 -1276 1104 0
1088 1276 -1104 0
-1088 -1277 1105 0
1088 1277 -1105 0
-1088 -1278 1106 0
1088 1278 -1106 0
-1089 -1279 1090 0
1089 1279 -1090 0
-1089 -1280 1091 0
1089 1280 -1091 0
-1089 -1281 1092 0
1089 1281 -1092 0
-1089 -1282 1093 0
1089 1282 -1093 0
-1089 -1283 1094 0
1089 1283 -1094 0
-1089 -1284 1095 0
1089 1284 -1095 0
-1089 -1285 1096 0
1089 1285 -1096 0
-1089 -1286 1097 0
1089 1286 -1097 0
-1089 -1287 1098 0
1089 1287 -1098 0
-1089 -1288 1099 0
1089 1288 -1099 0
-1089 -1289 1100 0
1089 1289 -1100 0
-1089 -1290 1101 0
1089 1290 -1101 0
-1089 -1291 1102 0
1089 1291 -1102 0
-1089 -1292 1103 0
1089 1292 -1103 0
-1089 -1293 1104 0
1089 1293 -1104 0
-1089 -1294 1105 0
1089 1294 -1105 0
-1089 -1295 1106 0
1089 1295 -1106 0
-1090 -1296 1091 0
1090 1296 -1091 0
-1090 -1297 1092 0
1090 1297 -1092 0
-1090 -1298 1093 0
1090 1298 -1093 0
-1090 -1299 1094 0
1090 1299 -1094 0
-1090 -1300 1095 0
1090 1300 -1095 0
-1090 -1301 1096 0
1090 1301 -1096 0
-1090 -1302 1097 0
1090 1302 -1097 0
-1090 -1303 1098 0
1090 1303 -1098 0
-1090 -1304 1099 0
1090 1304 -1099 0
-1090 -1305 1100 0
1090 1305 -1100 0
-1090 -1306 1101 0
1090 1306 -1101 0
-1090 -1307 1102 0
1090 1307 -1102 0
-1090 -1308 1103 0
1090 1308 -1103 0
-1090 -1309 1104 0
1090 1309 -1104 0
-1090 -1310 1105 0
1090 1310 -1105 0
-1090 -1311 1106 0
1090 1311 -1106 0
-1091 -1312 1092 0
1091 1312 -1092 0
-1091 -1313 1093 0
1091 1313 -1093 0
-1091 -1314 1094 0
1091 1314 -1094 0
-1091 -1315 1095 0
1091 1315 -1095 0
-1091 -1316 1096 0
1091 1316 -1096 0
-1091 -1317 1097 0
1091 1317 -1097 0
-1091 -1318 1098 0
1091 1318 -1098 0
-1091 -1319 1099 0
1091 1319 -1099 0
-1091 -1320 1100 0
1091 1320 -1100 0
-1091 -1321 1101 0
1091 1321 -1101 0
-1091 -1322 1102 0
1091 1322 -1102 0
-1091 -1323 1103 0
1091 1323 -1103 0
-1091 -1324 1104 0
1091 1324 -1104 0
-1091 -1325 1105 0
1091 1325 -1105 0
-1091 -1326 1106 0
1091 1326 -1106 0
-1092 -1327 1093 0
1092 1327 -1093 0
-1092 -1328 1094 0
1092 1328 -1094 0
-1092 -1329 1095 0
1092 1329 -1095 0
-1092 -1330 1096 0
1092 1330 -1096 0
-1092 -1331 1097 0
1092 1331 -1097 0
-1092 -1332 1098 0
1092 1332 -1098 0
-1092 -1333 1099 0
1092 1333 -1099 0
-1092 -1334 1100 0
1092 1334 -1100 0
-1092 -1335 1101 0
1092 1335 -1101 0
-1092 -1336 1102 0
1092 1336 -1102 0
-1092 -1337 1103 0
1092 1337 -1103 0
-1092 -1338 1104 0
1092 1338 -1104 0
-1092 -1339 1105 0
1092 1339 -1105 0
-1092 -1340 1106 0
1092 1340 -1106 0
-1093 -1341 1094 0
1093 1341 -1094 0
-1093 -1342 1095 0
1093 1342 -1095 0
-1093 -1343 1096 0
1093 1343 -1096 0
-1093 -1344 1097 0
1093 1344 -1097 0
-1093 -1345 1098 0
1093 1345 -1098 0
-1093 -1346 1099 0
1093 1346 -1099 0
-1093 -1347 1100 0
1093 1347 -1100 0
-1093 -1348 1101 0
1093 1348 -1101 0
-1093 -1349 1102 0
1093 1349 -1102 0
-1093 -1350 1103 0
1093 1350 -1103 0
-1093 -1351 1104 0
1093 1351 -1104 0
-1093 -1352 1105 0
1093 1352 -1105 0
-1093 -1353 1106 0
1093 1353 -1106 0
-1094 -1354 1095 0
1094 1354 -1095 0
-1094 -1355 1096 0
1094 1355 -1096 0
-1094 -1356 1097 0
1094 1356 -1097 0
-1094 -1357 1098 0
1094 1357 -1098 0
-1094 -1358 1099 0
1094 1358 -1099 0
-1094 -1359 1100 0
1094 1359 -1100 0
-1094 -1360 1101 0
1094 1360 -1101 0
-1094 -1361 1102 0
1094 1361 -1102 0
-1094 -1362 1103 0
1094 1362 -1103 0
-1094 -1363 1104 0
1094 1363 -1104 0
-1094 -1364 1105 0
1094 1364 -1105 0
-1094 -1365 1106 0
1094 1365 -1106 0
-1095 -1366 1096 0
1095 1366 -1096 0
-1095 -1367 1097 0
1095 1367 -1097 0
-1095 -1368 1098 0
1095 1368 -1098 0
-1095 -1369 1099 0
1095 1369 -1099 0
-1095 -1370 1100 0
1095 1370 -1100 0
-1095 -1371 1101 0
1095 1371 -1101 0
-1095 -1372 1102 0
1095 1372 -1102 0
-1095 -1373 1103 0
1095 1373 -1103 0
-1095 -1374 1104 0
1095 1374 -1104 0
-1095 -1375 1105 0
1095 1375 -1105 0
-1095 -1376 1106 0
1095 1376 -1106 0
-1096 -1377 1097 0
1096 1377 -1097 0
-1096 -1378 1098 0
1096 1378 -1098 0
-1096 -1379 1099 0
1096 1379 -1099 0
-1096 -1380 1100 0
1096 1380 -1100 0
-1096 -1381 1101 0
1096 1381 -1101 0
-1096 -1382 1102 0
1096 1382 -1102 0
-1096 -1383 1103 0
1096 1383 -1103 0
-1096 -1384 1104 0
1096 1384 -1104 0
-1096 -1385 1105 0
1096 1385 -1105 0
-1096 -1386 1106 0
1096 1386 -1106 0
-1097 -1387 1098 0
1097 1387 -1098 0
-1097 -1388 1099 0
1097 1388 -1099 0
-1097 -1389 1100 0
1097 1389 -1100 0
-1097 -1390 1101 0
1097 1390 -1101 0
-1097 -1391 1102 0
1097 1391 -1102 0
-1097 -1392 1103 0
1097 1392 -1103 0
-1097 -1393 1104 0
1097 1393 -1104 0
-1097 -1394 1105 0
1097 1394 -1105 0
-1097 -1395 1106 0
1097 1395 -1106 0
-1098 -1396 1099 0
1098 1396 -1099 0
-1098 -1397 1100 0
1098 1397 -1100 0
-1098 -1398 1101 0
1098 1398 -1101 0
-1098 -1399 1102 0
1098 1399 -1102 0
-1098 -1400 1103 0
1098 1400 -1103 0
-1098 -1401 1104 0
1098 1401 -1104 0
-1098 -1402 1105 0
1098 1402 -1105 0
-1098 -1403 1106 0
1098 1403 -1106 0
-1099 -1404 1100 0
1099 1404 -1100 0
-1099 -1405 1101 0
1099 1405 -1101 0
-1099 -1406 1102 0
1099 1406 -1102 0
-1099 -1407 1103 0
1099 1407 -1103 0
-1099 -1408 1104 0
1099 1408 -1104 0
-1099 -1409 1105 0
1099 1409 -1105 0
-1099 -1410 1106 0
1099 1410 -1106 0
-1100 -1411 1101 0
1100 1411 -1101 0
-1100 -1412 1102 0
1100 1412 -1102 0
-1100 -1413 1103 0
1100 1413 -1103 0
-1100 -1414 1104 0
1100 1414 -1104 0
-1100 -1415 1105 0
1100 1415 -1105 0
-1100 -1416 1106 0
1100 1416 -1106 0
-1101 -1417 1102 0
1101 1417 -1102 0
-1101 -1418 1103 0
1101 1418 -1103 0
-1101 -1419 1104 0
1101 1419 -1104 0
-1101 -1420 1105 0
1101 1420 -1105 0
-1101 -1421 1106 0
1101 1421 -1106 0
-1102 -1422 1103 0
1102 1422 -1103 0
-1102 -1423 1104 0
1102 1423 -1104 0
-1102 -1424 1105 0
1102 1424 -1105 0
-1102 -1425 1106 0
1102 1425 -1106 0
-1103 -1426 1104 0
1103 1426 -1104 0
-1103 -1427 1105 0
1103 1427 -1105 0
-1103 -1428 1106 0
1103 1428 -1106 0
-1104 -1429 1105 0
1104 1429 -1105 0
-1104 -1430 1106 0
1104 1430 -1106 0
-1105 -1431 1106 0
1105 1431 -1106 0
-1107 -1132 1108 0
1107 1132 -1108 0
-1107 -1133 1109 0
1107 1133 -1109 0
-1107 -1134 1110 0
1107 1134 -1110 0
-1107 -1135 1111 0
1107 1135 -1111 0
-1107 -1136 1112 0
1107 1136 -1112 0
-1107 -1137 1113 0
1107 1137 -1113 0
-1107 -1138 1114 0
1107 1138 -1114 0
-1107 -1139 1115 0
1107 1139 -1115 0
-1107 -1140 1116 0
1107 1140 -1116 0
-1107 -1141 1117 0
1107 1141 -1117 0
-1107 -1142 1118 0
1107 1142 -1118 0
-1107 -1143 1119 0
1107 1143 -1119 0
-1107 -1144 1120 0
1107 1144 -1120 0
-1107 -1145 1121 0
1107 1145 -1121 0
-1107 -1146 1122 0
1107 1146 -1122 0
-1107 -1147 1123 0
1107 1147 -1123 0
-1107 -1148 1124 0
1107 1148 -1124 0
-1107 -1149 1125 0
1107 1149 -1125 0
-1107 -1150 1126 0
1107 1150 -1126 0
-1107 -1151 1127 0
1107 1151 -1127 0
-1107 -1152 1128 0
1107 1152 -1128 0
-1107 -1153 1129 0
1107 1153 -1129 0
-1107 -1154 1130 0
1107 1154 -1130 0
-1107 -1155 1131 0
1107 1155 -1131 0
-1108 -1156 1109 0
1108 1156 -1109 0
-1108 -1157 1110 0
1108 1157 -1110 0
-1108 -1158 1111 0
1108 1158 -1111 0
-1108 -1159 1112 0
1108 1159 -1112 0
-1108 -1160 1113 0
1108 1160 -1113 0
-1108 -1161 1114 0
1108 1161 -1114 0
-1108 -1162 1115 0
1108 1162 -1115 0
-1108 -1163 1116 0
1108 1163 -1116 0
-1108 -1164 1117 0
1108 1164 -1117 0
-1108 -1165 1118 0
1108 1165 -1118 0
-1108 -1166 1119 0
1108 1166 -1119 0
-1108 -1167 1120 0
1108 1167 -1120 0
-1108 -1168 1121 0
1108 1168 -1121 0
-1108 -1169 1122 0
1108 1169 -1122 0
-1108 -1170 1123 0
1108 1170 -1123 0
-1108 -1171 1124 0
1108 1171 -1124 0
-1108 -1172 1125 0
1108 1172 -1125 0
-1108 -1173 1126 0
1108 1173 -1126 0
-1108 -1174 1127 0
1108 1174 -1127 0
-1108 -1175 1128 0
1108 1175 -1128 0
-1108 -1176 1129 0
1108 1176 -1129 0
-1108 -1177 1130 0
1108 1177 -1130 0
-1108 -1178 1131 0
1108 1178 -1131 0
-1109 -1179 1110 0
1109 1179 -1110 0
-1109 -1180 1111 0
1109 1180 -1111 0
-1109 -1181 1112 0
1109 1181 -1112 0
-1109 -1182 1113 0
1109 1182 -1113 0
-1109 -1183 1114 0
1109 1183 -1114 0
-1109 -1184 1115 0
1109 1184 -1115 0
-1109 -1185 1116 0
1109 1185 -1116 0
-1109 -1186 1117 0
1109 1186 -1117 0
-1109 -1187 1118 0
1109 1187 -1118 0
-1109 -1188 1119 0
1109 1188 -1119 0
-1109 -1189 1120 0
1109 1189 -1120 0
-1109 -1190 1121 0
1109 1190 -1121 0
-1109 -1191 1122 0
1109 1191 -1122 0
-1109 -1192 1123 0
1109 1192 -1123 0
-1109 -1193 1124 0
1109 1193 -1124 0
-1109 -1194 1125 0
1109 1194 -1125 0
-1109 -1195 1126 0
1109 1195 -1126 0
-1109 -1196 1127 0
1109 1196 -1127 0
-1109 -1197 1128 0
1109 1197 -1128 0
-1109 -1198 1129 0
1109 1198 -1129 0
-1109 -1199 1130 0
1109 1199 -1130 0
-1109 -1200 1131 0
1109 1200 -1131 0
-1110 -1201 1111 0
1110 1201 -1111 0
-1110 -1202 1112 0
1110 1202 -1112 0
-1110 -1203 1113 0
1110 1203 -1113 0
-1110 -1204 1114 0
1110 1204 -1114 0
-1110 -1205 1115 0
1110 1205 -1115 0
-1110 -1206 1116 0
1110 1206 -1116 0
-1110 -1207 1117 0
1110 1207 -1117 0
-1110 -1208 1118 0
1110 1208 -1118 0
-1110 -1209 1119 0
1110 1209 -1119 0
-1110 -1210 1120 0
1110 1210 -1120 0
-1110 -1211 1121 0
1110 1211 -1121 0
-1110 -1212 1122 0
1110 1212 -1122 0
-1110 -1213 1123 0
1110 1213 -1123 0
-1110 -1214 1124 0
1110 1214 -1124 0
-1110 -1215 1125 0
1110 1215 -1125 0
-1110 -1216 1126 0
1110 1216 -1126 0
-1110 -1217 1127 0
1110 1217 -1127 0
-1110 -1218 1128 0
1110 1218 -1128 0
-1110 -1219 1129 0
1110 1219 -1129 0
-1110 -1220 1130 0
1110 1220 -1130 0
-1110 -1221 1131 0
1110 1221 -1131 0
-1111 -1222 1112 0
1111 1222 -1112 0
-1111 -1223 1113 0
1111 1223 -1113 0
-1111 -1224 1114 0
1111 1224 -1114 0
-1111 -1225 1115 0
1111 1225 -1115 0
-1111 -1226 1116 0
1111 1226 -1116 0
-1111 -1227 1117 0
1111 1227 -1117 0
-1111 -1228 1118 0
1111 1228 -1118 0
-1111 -1229 1119 0
1111 1229 -1119 0
-1111 -1230 1120 0
1111 1230 -1120 0
-1111 -1231 1121 0
1111 1231 -1121 0
-1111 -1232 1122 0
1111 1232 -1122 0
-1111 -1233 1123 0
1111 1233 -1123 0
-1111 -1234 1124 0
1111 1234 -1124 0
-1111 -1235 1125 0
1111 1235 -1125 0
-1111 -1236 1126 0
1111 1236 -1126 0
-1111 -1237 1127 0
1111 1237 -1127 0
-1111 -1238 1128 0
1111 1238 -1128 0
-1111 -1239 1129 0
1111 1239 -1129 0
-1111 -1240 1130 0
1111 1240 -1130 0
-1111 -1241 1131 0
1111 1241 -1131 0
-1112 -1242 1113 0
1112 1242 -1113 0
-1112 -1243 1114 0
1112 1243 -1114 0
-1112 -1244 1115 0
1112 1244 -1115 0
-1112 -1245 1116 0
1112 1245 -1116 0
-1112 -1246 1117 0
1112 1246 -1117 0
-1112 -1247 1118 0
1112 1247 -1118 0
-1112 -1248 1119 0
1112 1248 -1119 0
-1112 -1249 1120 0
1112 1249 -1120 0
-1112 -1250 1121 0
1112 1250 -1121 0
-1112 -1251 1122 0
1112 1251 -1122 0
-1112 -1252 1123 0
1112 1252 -1123 0
-1112 -1253 1124 0
1112 1253 -1124 0
-1112 -1254 1125 0
1112 1254 -1125 0
-1112 -1255 1126 0
1112 1255 -1126 0
-1112 -1256 1127 0
1112 1256 -1127 0
-1112 -1257 1128 0
1112 1257 -1128 0
-1112 -1258 1129 0
1112 1258 -1129 0
-1112 -1259 1130 0
1112 1259 -1130 0
-1112 -1260 1131 0
1112 1260 -1131 0
-1113 -1261 1114 0
1113 1261 -1114 0
-1113 -1262 1115 0
1113 1262 -1115 0
-1113 -1263 1116 0
1113 1263 -1116 0
-1113 -1264 1117 0
1113 1264 -1117 0
-1113 -1265 1118 0
1113 1265 -1118 0
-1113 -1266 1119 0
1113 1266 -1119 0
-1113 -1267 1120 0
1113 1267 -1120 0
-1113 -1268 1121 0
1113 1268 -1121 0
-1113 -1269 1122 0
1113 1269 -1122 0
-1113 -1270 1123 0
1113 1270 -1123 0
-1113 -1271 1124 0
1113 1271 -1124 0
-1113 -1272 1125 0
1113 1272 -1125 0
-1113 -1273 1126 0
1113 1273 -1126 0
-1113 -1274 1127 0
1113 1274 -1127 0
-1113 -1275 1128 0
1113 1275 -1128 0
-1113 -1276 1129 0
1113 1276 -1129 0
-1113 -1277 1130 0
1113 1277 -1130 0
-1113 -1278 1131 0
1113 1278 -1131 0
-1114 -1279 1115 0
1114 1279 -1115 0
-1114 -1280 1116 0
1114 1280 -1116 0
-1114 -1281 1117 0
1114 1281 -1117 0
-1114 -1282 1118 0
1114 1282 -1118 0
-1114 -1283 1119 0
1114 1283 -1119 0
-1114 -1284 1120 0
1114 1284 -1120 0
-1114 -1285 1121 0
1114 1285 -1121 0
-1114 -1286 1122 0
1114 1286 -1122 0
-1114 -1287 1123 0
1114 1287 -1123 0
-1114 -1288 1124 0
1114 1288 -1124 0
-1114 -1289 1125 0
1114 1289 -1125 0
-1114 -1290 1126 0
1114 1290 -1126 0
-1114 -1291 1127 0
1114 1291 -1127 0
-1114 -1292 1128 0
1114 1292 -1128 0
-1114 -1293 1129 0
1114 1293 -1129 0
-1114 -1294 1130 0
1114 1294 -1130 0
-1114 -1295 1131 0
1114 1295 -1131 0
-1115 -1296 1116 0
1115 1296 -1116 0
-1115 -1297 1117 0
1115 1297 -1117 0
-1115 -1298 1118 0
1115 1298 -1118 0
-1115 -1299 1119 0
1115 1299 -1119 0
-1115 -1300 1120 0
1115 1300 -1120 0
-1115 -1301 1121 0
1115 1301 -1121 0
-1115 -1302 1122 0
1115 1302 -1122 0
-1115 -1303 1123 0
1115 1303 -1123 0
-1115 -1304 1124 0
1115 1304 -1124 0
-1115 -1305 1125 0
1115 1305 -1125 0
-1115 -1306 1126 0
1115 1306 -1126 0
-1115 -1307 1127 0
1115 1307 -1127 0
-1115 -1308 1128 0
1115 1308 -1128 0
-1115 -1309 1129 0
1115 1309 -1129 0
-1115 -1310 1130 0
1115 1310 -1130 0
-1115 -1311 1131 0
1115 1311 -1131 0
-1116 -1312 1117 0
1116 1312 -1117 0
-1116 -1313 1118 0
1116 1313 -1118 0
-1116 -1314 1119 0
1116 1314 -1119 0
-1116 -1315 1120 0
1116 1315 -1120 0
-1116 -1316 1121 0
1116 1316 -1121 0
-1116 -1317 1122 0
1116 1317 -1122 0
-1116 -1318 1123 0
1116 1318 -1123 0
-1116 -1319 1124 0
1116 1319 -1124 0
-1116 -1320 1125 0
1116 1320 -1125 0
-1116 -1321 1126 0
1116 1321 -1126 0
-1116 -1322 1127 0
1116 1322 -1127 0
-1116 -1323 1128 0
1116 1323 -1128 0
-1116 -1324 1129 0
1116 1324 -1129 0
-1116 -1325 1130 0
1116 1325 -1130 0
-1116 -1326 1131 0
1116 1326 -1131 0
-1117 -1327 1118 0
1117 1327 -1118 0
-1117 -1328 1119 0
1117 1328 -1119 0
-1117 -1329 1120 0
1117 1329 -1120 0
-1117 -1330 1121 0
1117 1330 -1121 0
-1117 -1331 1122 0
1117 1331 -1122 0
-1117 -1332 1123 0
1117 1332 -1123 0
-1117 -1333 1124 0
1117 1333 -1124 0
-1117 -1334 1125 0
1117 1334 -1125 0
-1117 -1335 1126 0
1117 1335 -1126 0
-1117 -1336 1127 0
1117 1336 -1127 0
-1117 -1337 1128 0
1117 1337 -1128 0
-1117 -1338 1129 0
1117 1338 -1129 0
-1117 -1339 1130 0
1117 1339 -1130 0
-1117 -1340 1131 0
1117 1340 -1131 0
-1118 -1341 1119 0
1118 1341 -1119 0
-1118 -1342 1120 0
1118 1342 -1120 0
-1118 -1343 1121 0
1118 1343 -1121 0
-1118 -1344 1122 0
1118 1344 -1122 0
-1118 -1345 1123 0
1118 1345 -1123 0
-1118 -1346 1124 0
1118 1346 -1124 0
-1118 -1347 1125 0
1118 1347 -1125 0
-1118 -1348 1126 0
1118 1348 -1126 0
-1118 -1349 1127 0
1118 1349 -1127 0
-1118 -1350 1128 0
1118 1350 -1128 0
-1118 -1351 1129 0
1118 1351 -1129 0
-1118 -1352 1130 0
1118 1352 -1130 0
-1118 -1353 1131 0
1118 1353 -1131 0
-1119 -1354 1120 0
1119 1354 -1120 0
-1119 -1355 1121 0
1119 1355 -1121 0
-1119 -1356 1122 0
1119 1356 -1122 0
-1119 -1357 1123 0
1119 1357 -1123 0
-1119 -1358 1124 0
1119 1358 -1124 0
-1119 -1359 1125 0
1119 1359 -1125 0
-1119 -1360 1126 0
1119 1360 -1126 0
-1119 -1361 1127 0
1119 1361 -1127 0
-1119 -1362 1128 0
1119 1362 -1128 0
-1119 -1363 1129 0
1119 1363 -1129 0
-1119 -1364 1130 0
1119 1364 -1130 0
-1119 -1365 1131 0
1119 1365 -1131 0
-1120 -1366 1121 0
1120 1366 -1121 0
-1120 -1367 1122 0
1120 1367 -1122 0
-1120 -1368 1123 0
1120 1368 -1123 0
-1120 -1369 1124 0
1120 1369 -1124 0
-1120 -1370 1125 0
1120 1370 -1125 0
-1120 -1371 1126 0
1120 1371 -1126 0
-1120 -1372 1127 0
1120 1372 -1127 0
-1120 -1373 1128 0
1120 1373 -1128 0
-1120 -1374 1129 0
1120 1374 -1129 0
-1120 -1375 1130 0
1120 1375 -1130 0
-1120 -1376 1131 0
1120 1376 -1131 0
-1121 -1377 1122 0
1121 1377 -1122 0
-1121 -1378 1123 0
1121 1378 -1123 0
-1121 -1379 1124 0
1121 1379 -1124 0
-1121 -1380 1125 0
1121 1380 -1125 0
-1121 -1381 1126 0
1121 1381 -1126 0
-1121 -1382 1127 0
1121 1382 -1127 0
-1121 -1383 1128 0
1121 1383 -1128 0
-1121 -1384 1129 0
1121 1384 -1129 0
-1121 -1385 1130 0
1121 1385 -1130 0
-1121 -1386 1131 0
1121 1386 -1131 0
-1122 -1387 1123 0
1122 1387 -1123 0
-1122 -1388 1124 0
1122 1388 -1124 0
-1122 -1389 1125 0
1122 1389 -1125 0
-1122 -1390 1126 0
1122 1390 -1126 0
-1122 -1391 1127 0
1122 1391 -1127 0
-1122 -1392 1128 0
1122 1392 -1128 0
-1122 -1393 1129 0
1122 1393 -1129 0
-1122 -1394 1130 0
1122 1394 -1130 0
-1122 -1395 1131 0
1122 1395 -1131 0
-1123 -1396 1124 0
1123 1396 -1124 0
-1123 -1397 1125 0
1123 1397 -1125 0
-1123 -1398 1126 0
1123 1398 -1126 0
-1123 -1399 1127 0
1123 1399 -1127 0
-1123 -1400 1128 0
1123 1400 -1128 0
-1123 -1401 1129 0
1123 1401 -1129 0
-1123 -1402 1130 0
1123 1402 -1130 0
-1123 -1403 1131 0
1123 1403 -1131 0
-1124 -1404 1125 0
1124 1404 -1125 0
-1124 -1405 1126 0
1124 1405 -1126 0
-1124 -1406 1127 0
1124 1406 -1127 0
-1124 -1407 1128 0
1124 1407 -1128 0
-1124 -1408 1129 0
1124 1408 -1129 0
-1124 -1409 1130 0
1124 1409 -1130 0
-1124 -1410 1131 0
1124 1410 -1131 0
-1125 -1411 1126 0
1125 1411 -1126 0
-1125 -1412 1127 0
1125 1412 -1127 0
-1125 -1413 1128 0
1125 1413 -1128 0
-1125 -1414 1129 0
1125 1414 -1129 0
-1125 -1415 1130 0
1125 1415 -1130 0
-1125 -1416 1131 0
1125 1416 -1131 0
-1126 -1417 1127 0
1126 1417 -1127 0
-1126 -1418 1128 0
1126 1418 -1128 0
-1126 -1419 1129 0
1126 1419 -1129 0
-1126 -1420 1130 0
1126 1420 -1130 0
-1126 -1421 1131 0
1126 1421 -1131 0
-1127 -1422 1128 0
1127 1422 -1128 0
-1127 -1423 1129 0
1127 1423 -1129 0
-1127 -1424 1130 0
1127 1424 -1130 0
-1127 -1425 1131 0
1127 1425 -1131 0
-1128 -1426 1129 0
1128 1426 -1129 0
-1128 -1427 1130 0
1128 1427 -1130 0
-1128 -1428 1131 0
1128 1428 -1131 0
-1129 -1429 1130 0
1129 1429 -1130 0
-1129 -1430 1131 0
1129 1430 -1131 0
-1130 -1431 1131 0
1130 1431 -1131 0
-1132 -1156 1133 0
1132 1156 -1133 0
-1132 -1157 1134 0
1132 1157 -1134 0
-1132 -1158 1135 0
1132 1158 -1135 0
-1132 -1159 1136 0
1132 1159 -1136 0
-1132 -1160 1137 0
1132 1160 -1137 0
-1132 -1161 1138 0
1132 1161 -1138 0
-1132 -1162 1139 0
1132 1162 -1139 0
-1132 -1163 1140 0
1132 1163 -1140 0
-1132 -1164 1141 0
1132 1164 -1141 0
-1132 -1165 1142 0
1132 1165 -1142 0
-1132 -1166 1143 0
1132 1166 -1143 0
-1132 -1167 1144 0
1132 1167 -1144 0
-1132 -1168 1145 0
1132 1168 -1145 0
-1132 -1169 1146 0
1132 1169 -1146 0
-1132 -1170 1147 0
1132 1170 -1147 0
-1132 -1171 1148 0
1132 1171 -1148 0
-1132 -1172 1149 0
1132 1172 -1149 0
-1132 -1173 1150 0
1132 1173 -1150 0
-1132 -1174 1151 0
1132 1174 -1151 0
-1132 -1175 1152 0
1132 1175 -1152 0
-1132 -1176 1153 0
1132 1176 -1153 0
-1132 -1177 1154 0
1132 1177 -1154 0
-1132 -1178 1155 0
1132 1178 -1155 0
-1133 -1179 1134 0
1133 1179 -1134 0
-1133 -1180 1135 0
1133 1180 -1135 0
-1133 -1181 1136 0
1133 1181 -1136 0
-1133 -1182 1137 0
1133 1182 -1137 0
-1133 -1183 1138 0
1133 1183 -1138 0
-1133 -1184 1139 0
1133 1184 -1139 0
-1133 -1185 1140 0
1133 1185 -1140 0
-1133 -1186 1141 0
1133 1186 -1141 0
-1133 -1187 1142 0
1133 1187 -1142 0
-1133 -1188 1143 0
1133 1188 -1143 0
-1133 -1189 1144 0
1133 1189 -1144 0
-1133 -1190 1145 0
1133 1190 -1145 0
-1133 -1191 1146 0
1133 1191 -1146 0
-1133 -1192 1147 0
1133 1192 -1147 0
-1133 -1193 1148 0
1133 1193 -1148 0
-1133 -1194 1149 0
1133 1194 -1149 0
-1133 -1195 1150 0
1133 1195 -1150 0
-1133 -1196 1151 0
1133 1196 -1151 0
-1133 -1197 1152 0
1133 1197 -1152 0
-1133 -1198 1153 0
1133 1198 -1153 0
-1133 -1199 1154 0
1133 1199 -1154 0
-1133 -1200 1155 0
1133 1200 -1155 0
-1134 -1201 1135 0
1134 1201 -1135 0
-1134 -1202 1136 0
1134 1202 -1136 0
-1134 -1203 1137 0
1134 1203 -1137 0
-1134 -1204 1138 0
1134 1204 -1138 0
-1134 -1205 1139 0
1134 1205 -1139 0
-1134 -1206 1140 0
1134 1206 -1140 0
-1134 -1207 1141 0
1134 1207 -1141 0
-1134 -1208 1142 0
1134 1208 -1142 0
-1134 -1209 1143 0
1134 1209 -1143 0
-1134 -1210 1144 0
1134 1210 -1144 0
-1134 -1211 1145 0
1134 1211 -1145 0
-1134 -1212 1146 0
1134 1212 -1146 0
-1134 -1213 1147 0
1134 1213 -1147 0
-1134 -1214 1148 0
1134 1214 -1148 0
-1134 -1215 1149 0
1134 1215 -1149 0
-1134 -1216 1150 0
1134 1216 -1150 0
-1134 -1217 1151 0
1134 1217 -1151 0
-1134 -1218 1152 0
1134 1218 -1152 0
-1134 -1219 1153 0
1134 1219 -1153 0
-1134 -1220 1154 0
1134 1220 -1154 0
-1134 -1221 1155 0
1134 1221 -1155 0
-1135 -1222 1136 0
1135 1222 -1136 0
-1135 -1223 1137 0
1135 1223 -1137 0
-1135 -1224 1138 0
1135 1224 -1138 0
-1135 -1225 1139 0
1135 1225 -1139 0
-1135 -1226 1140 0
1135 1226 -1140 0
-1135 -1227 1141 0
1135 1227 -1141 0
-1135 -1228 1142 0
1135 1228 -1142 0
-1135 -1229 1143 0
1135 1229 -1143 0
-1135 -1230 1144 0
1135 1230 -1144 0
-1135 -1231 1145 0
1135 1231 -1145 0
-1135 -1232 1146 0
1135 1232 -1146 0
-1135 -1233 1147 0
1135 1233 -1147 0
-1135 -1234 1148 0
1135 1234 -1148 0
-1135 -1235 1149 0
1135 1235 -1149 0
-1135 -1236 1150 0
1135 1236 -1150 0
-1135 -1237 1151 0
1135 1237 -1151 0
-1135 -1238 1152 0
1135 1238 -1152 0
-1135 -1239 1153 0
1135 1239 -1153 0
-1135 -1240 1154 0
1135 1240 -1154 0
-1135 -1241 1155 0
1135 1241 -1155 0
-1136 -1242 1137 0
1136 1242 -1137 0
-1136 -1243 1138 0
1136 1243 -1138 0
-1136 -1244 1139 0
1136 1244 -1139 0
-1136 -1245 1140 0
1136 1245 -1140 0
-1136 -1246 1141 0
1136 1246 -1141 0
-1136 -1247 1142 0
1136 1247 -1142 0
-1136 -1248 1143 0
1136 1248 -1143 0
-1136 -1249 1144 0
1136 1249 -1144 0
-1136 -1250 1145 0
1136 1250 -1145 0
-1136 -1251 1146 0
1136 1251 -1146 0
-1136 -1252 1147 0
1136 1252 -1147 0
-1136 -1253 1148 0
1136 1253 -1148 0
-1136 -1254 1149 0
1136 1254 -1149 0
-1136 -1255 1150 0
1136 1255 -1150 0
-1136 -1256 1151 0
1136 1256 -1151 0
-1136 -1257 1152 0
1136 1257 -1152 0
-1136 -1258 1153 0
1136 1258 -1153 0
-1136 -1259 1154 0
1136 1259 -1154 0
-1136 -1260 1155 0
1136 1260 -1155 0
-1137 -1261 1138 0
1137 1261 -1138 0
-1137 -1262 1139 0
1137 1262 -1139 0
-1137 -1263 1140 0
1137 1263 -1140 0
-1137 -1264 1141 0
1137 1264 -1141 0
-1137 -1265 1142 0
1137 1265 -1142 0
-1137 -1266 1143 0
1137 1266 -1143 0
-1137 -1267 1144 0
1137 1267 -1144 0
-1137 -1268 1145 0
1137 1268 -1145 0
-1137 -1269 1146 0
1137 1269 -1146 0
-1137 -1270 1147 0
1137 1270 -1147 0
-1137 -1271 1148 0
1137 1271 -1148 0
-1137 -1272 1149 0
1137 1272 -1149 0
-1137 -1273 1150 0
1137 1273 -1150 0
-1137 -1274 1151 0
1137 1274 -1151 0
-1137 -1275 1152 0
1137 1275 -1152 0
-1137 -1276 1153 0
1137 1276 -1153 0
-1137 -1277 1154 0
1137 1277 -1154 0
-1137 -1278 1155 0
1137 1278 -1155 0
-1138 -1279 1139 0
1138 1279 -1139 0
-1138 -1280 1140 0
1138 1280 -1140 0
-1138 -1281 1141 0
1138 1281 -1141 0
-1138 -1282 1142 0
1138 1282 -1142 0
-1138 -1283 1143 0
1138 1283 -1143 0
-1138 -1284 1144 0
1138 1284 -1144 0
-1138 -1285 1145 0
1138 1285 -1145 0
-1138 -1286 1146 0
1138 1286 -1146 0
-1138 -1287 1147 0
1138 1287 -1147 0
-1138 -1288 1148 0
1138 1288 -1148 0
-1138 -1289 1149 0
1138 1289 -1149 0
-1138 -1290 1150 0
1138 1290 -1150 0
-1138 -1291 1151 0
1138 1291 -1151 0
-1138 -1292 1152 0
1138 1292 -1152 0
-1138 -1293 1153 0
1138 1293 -1153 0
-1138 -1294 1154 0
1138 1294 -1154 0
-1138 -1295 1155 0
1138 1295 -1155 0
-1139 -1296 1140 0
1139 1296 -1140 0
-1139 -1297 1141 0
1139 1297 -1141 0
-1139 -1298 1142 0
1139 1298 -1142 0
-1139 -1299 1143 0
1139 1299 -1143 0
-1139 -1300 1144 0
1139 1300 -1144 0
-1139 -1301 1145 0
1139 1301 -1145 0
-1139 -1302 1146 0
1139 1302 -1146 0
-1139 -1303 1147 0
1139 1303 -1147 0
-1139 -1304 1148 0
1139 1304 -1148 0
-1139 -1305 1149 0
1139 1305 -1149 0
-1139 -1306 1150 0
1139 1306 -1150 0
-1139 -1307 1151 0
1139 1307 -1151 0
-1139 -1308 1152 0
1139 1308 -1152 0
-1139 -1309 1153 0
1139 1309 -1153 0
-1139 -1310 1154 0
1139 1310 -1154 0
-1139 -1311 1155 0
1139 1311 -1155 0
-1140 -1312 1141 0
1140 1312 -1141 0
-1140 -1313 1142 0
1140 1313 -1142 0
-1140 -1314 1143 0
1140 1314 -1143 0
-1140 -1315 1144 0
1140 1315 -1144 0
-1140 -1316 1145 0
1140 1316 -1145 0
-1140 -1317 1146 0
1140 1317 -1146 0
-1140 -1318 1147 0
1140 1318 -1147 0
-1140 -1319 1148 0
1140 1319 -1148 0
-1140 -1320 1149 0
1140 1320 -1149 0
-1140 -1321 1150 0
1140 1321 -1150 0
-1140 -1322 1151 0
1140 1322 -1151 0
-1140 -1323 1152 0
1140 1323 -1152 0
-1140 -1324 1153 0
1140 1324 -1153 0
-1140 -1325 1154 0
1140 1325 -1154 0
-1140 -1326 1155 0
1140 1326 -1155 0
-1141 -1327 1142 0
1141 1327 -1142 0
-1141 -1328 1143 0
1141 1328 -1143 0
-1141 -1329 1144 0
1141 1329 -1144 0
-1141 -1330 1145 0
1141 1330 -1145 0
-1141 -1331 1146 0
1141 1331 -1146 0
-1141 -1332 1147 0
1141 1332 -1147 0
-1141 -1333 1148 0
1141 1333 -1148 0
-1141 -1334 1149 0
1141 1334 -1149 0
-1141 -1335 1150 0
1141 1335 -1150 0
-1141 -1336 1151 0
1141 1336 -1151 0
-1141 -1337 1152 0
1141 1337 -1152 0
-1141 -1338 1153 0
1141 1338 -1153 0
-1141 -1339 1154 0
1141 1339 -1154 0
-1141 -1340 1155 0
1141 1340 -1155 0
-1142 -1341 1143 0
1142 1341 -1143 0
-1142 -1342 1144 0
1142 1342 -1144 0
-1142 -1343 1145 0
1142 1343 -1145 0
-1142 -1344 1146 0
1142 1344 -1146 0
-1142 -1345 1147 0
1142 1345 -1147 0
-1142 -1346 1148 0
1142 1346 -1148 0
-1142 -1347 1149 0
1142 1347 -1149 0
-1142 -1348 1150 0
1142 1348 -1150 0
-1142 -1349 1151 0
1142 1349 -1151 0
-1142 -1350 1152 0
1142 1350 -1152 0
-1142 -1351 1153 0
1142 1351 -1153 0
-1142 -1352 1154 0
1142 1352 -1154 0
-1142 -1353 1155 0
1142 1353 -1155 0
-1143 -1354 1144 0
1143 1354 -1144 0
-1143 -1355 1145 0
1143 1355 -1145 0
-1143 -1356 1146 0
1143 1356 -1146 0
-1143 -1357 1147 0
1143 1357 -1147 0
-1143 -1358 1148 0
1143 1358 -1148 0
-1143 -1359 1149 0
1143 1359 -1149 0
-1143 -1360 1150 0
1143 1360 -1150 0
-1143 -1361 1151 0
1143 1361 -1151 0
-1143 -1362 1152 0
1143 1362 -1152 0
-1143 -1363 1153 0
1143 1363 -1153 0
-1143 -1364 1154 0
1143 1364 -1154 0
-1143 -1365 1155 0
1143 1365 -1155 0
-1144 -1366 1145 0
1144 1366 -1145 0
-1144 -1367 1146 0
1144 1367 -1146 0
-1144 -1368 1147 0
1144 1368 -1147 0
-1144 -1369 1148 0
1144 1369 -1148 0
-1144 -1370 1149 0
1144 1370 -1149 0
-1144 -1371 1150 0
1144 1371 -1150 0
-1144 -1372 1151 0
1144 1372 -1151 0
-1144 -1373 1152 0
1144 1373 -1152 0
-1144 -1374 1153 0
1144 1374 -1153 0
-1144 -1375 1154 0
1144 1375 -1154 0
-1144 -1376 1155 0
1144 1376 -1155 0
-1145 -1377 1146 0
1145 1377 -1146 0
-1145 -1378 1147 0
1145 1378 -1147 0
-1145 -1379 1148 0
1145 1379 -1148 0
-1145 -1380 1149 0
1145 1380 -1149 0
-1145 -1381 1150 0
1145 1381 -1150 0
-1145 -1382 1151 0
1145 1382 -1151 0
-1145 -1383 1152 0
1145 1383 -1152 0
-1145 -1384 1153 0
1145 1384 -1153 0
-1145 -1385 1154 0
1145 1385 -1154 0
-1145 -1386 1155 0
1145 1386 -1155 0
-1146 -1387 1147 0
1146 1387 -1147 0
-1146 -1388 1148 0
1146 1388 -1148 0
-1146 -1389 1149 0
1146 1389 -1149 0
-1146 -1390 1150 0
1146 1390 -1150 0
-1146 -1391 1151 0
1146 1391 -1151 0
-1146 -1392 1152 0
1146 1392 -1152 0
-1146 -1393 1153 0
1146 1393 -1153 0
-1146 -1394 1154 0
1146 1394 -1154 0
-1146 -1395 1155 0
1146 1395 -1155 0
-1147 -1396 1148 0
1147 1396 -1148 0
-1147 -1397 1149 0
1147 1397 -1149 0
-1147 -1398 1150 0
1147 1398 -1150 0
-1147 -1399 1151 0
1147 1399 -1151 0
-1147 -1400 1152 0
1147 1400 -1152 0
-1147 -1401 1153 0
1147 1401 -1153 0
-1147 -1402 1154 0
1147 1402 -1154 0
-1147 -1403 1155 0
1147 1403 -1155 0
-1148 -1404 1149 0
1148 1404 -1149 0
-1148 -1405 1150 0
1148 1405 -1150 0
-1148 -1406 1151 0
1148 1406 -1151 0
-1148 -1407 1152 0
1148 1407 -1152 0
-1148 -1408 1153 0
1148 1408 -1153 0
-1148 -1409 1154 0
1148 1409 -1154 0
-1148 -1410 1155 0
1148 1410 -1155 0
-1149 -1411 1150 0
1149 1411 -1150 0
-1149 -1412 1151 0
1149 1412 -1151 0
-1149 -1413 1152 0
1149 1413 -1152 0
-1149 -1414 1153 0
1149 1414 -1153 0
-1149 -1415 1154 0
1149 1415 -1154 0
-1149 -1416 1155 0
1149 1416 -1155 0
-1150 -1417 1151 0
1150 1417 -1151 0
-1150 -1418 1152 0
1150 1418 -1152 0
-1150 -1419 1153 0
1150 1419 -1153 0
-1150 -1420 1154 0
1150 1420 -1154 0
-1150 -1421 1155 0
1150 1421 -1155 0
-1151 -1422 1152 0
1151 1422 -1152 0
-1151 -1423 1153 0
1151 1423 -1153 0
-1151 -1424 1154 0
1151 1424 -1154 0
-1151 -1425 1155 0
1151 1425 -1155 0
-1152 -1426 1153 0
1152 1426 -1153 0
-1152 -1427 1154 0
1152 1427 -1154 0
-1152 -1428 1155 0
1152 1428 -1155 0
-1153 -1429 1154 0
1153 1429 -1154 0
-1153 -1430 1155 0
1153 1430 -1155 0
-1154 -1431 1155 0
1154 1431 -1155 0
-1156 -1179 1157 0
1156 1179 -1157 0
-1156 -1180 1158 0
1156 1180 -1158 0
-1156 -1181 1159 0
1156 1181 -1159 0
-1156 -1182 1160 0
1156 1182 -1160 0
-1156 -1183 1161 0
1156 1183 -1161 0
-1156 -1184 1162 0
1156 1184 -1162 0
-1156 -1185 1163 0
1156 1185 -1163 0
-1156 -1186 1164 0
1156 1186 -1164 0
-1156 -1187 1165 0
1156 1187 -1165 0
-1156 -1188 1166 0
1156 1188 -1166 0
-1156 -1189 1167 0
1156 1189 -1167 0
-1156 -1190 1168 0
1156 1190 -1168 0
-1156 -1191 1169 0
1156 1191 -1169 0
-1156 -1192 1170 0
1156 1192 -1170 0
-1156 -1193 1171 0
1156 1193 -1171 0
-1156 -1194 1172 0
1156 1194 -1172 0
-1156 -1195 1173 0
1156 1195 -1173 0
-1156 -1196 1174 0
1156 1196 -1174 0
-1156 -1197 1175 0
1156 1197 -1175 0
-1156 -1198 1176 0
1156 1198 -1176 0
-1156 -1199 1177 0
1156 1199 -1177 0
-1156 -1200 1178 0
1156 1200 -1178 0
-1157 -1201 1158 0
1157 1201 -1158 0
-1157 -1202 1159 0
1157 1202 -1159 0
-1157 -1203 1160 0
1157 1203 -1160 0
-1157 -1204 1161 0
1157 1204 -1161 0
-1157 -1205 1162 0
1157 1205 -1162 0
-1157 -1206 1163 0
1157 1206 -1163 0
-1157 -1207 1164 0
1157 1207 -1164 0
-1157 -1208 1165 0
1157 1208 -1165 0
-1157 -1209 1166 0
1157 1209 -1166 0
-1157 -1210 1167 0
1157 1210 -1167 0
-1157 -1211 1168 0
1157 1211 -1168 0
-1157 -1212 1169 0
1157 1212 -1169 0
-1157 -1213 1170 0
1157 1213 -1170 0
-1157 -1214 1171 0
1157 1214 -1171 0
-1157 -1215 1172 0
1157 1215 -1172 0
-1157 -1216 1173 0
1157 1216 -1173 0
-1157 -1217 1174 0
1157 1217 -1174 0
-1157 -1218 1175 0
1157 1218 -1175 0
-1157 -1219 1176 0
1157 1219 -1176 0
-1157 -1220 1177 0
1157 1220 -1177 0
-1157 -1221 1178 0
1157 1221 -1178 0
-1158 -1222 1159 0
1158 1222 -1159 0
-1158 -1223 1160 0
1158 1223 -1160 0
-1158 -1224 1161 0
1158 1224 -1161 0
-1158 -1225 1162 0
1158 1225 -1162 0
-1158 -1226 1163 0
1158 1226 -1163 0
-1158 -1227 1164 0
1158 1227 -1164 0
-1158 -1228 1165 0
1158 1228 -1165 0
-1158 -1229 1166 0
1158 1229 -1166 0
-1158 -1230 1167 0
1158 1230 -1167 0
-1158 -1231 1168 0
1158 1231 -1168 0
-1158 -1232 1169 0
1158 1232 -1169 0
-1158 -1233 1170 0
1158 1233 -1170 0
-1158 -1234 1171 0
1158 1234 -1171 0
-1158 -1235 1172 0
1158 1235 -1172 0
-1158 -1236 1173 0
1158 1236 -1173 0
-1158 -1237 1174 0
1158 1237 -1174 0
-1158 -1238 1175 0
1158 1238 -1175 0
-1158 -1239 1176 0
1158 1239 -1176 0
-1158 -1240 1177 0
1158 1240 -1177 0
-1158 -1241 1178 0
1158 1241 -1178 0
-1159 -1242 1160 0
1159 1242 -1160 0
-1159 -1243 1161 0
1159 1243 -1161 0
-1159 -1244 1162 0
1159 1244 -1162 0
-1159 -1245 1163 0
1159 1245 -1163 0
-1159 -1246 1164 0
1159 1246 -1164 0
-1159 -1247 1165 0
1159 1247 -1165 0
-1159 -1248 1166 0
1159 1248 -1166 0
-1159 -1249 1167 0
1159 1249 -1167 0
-1159 -1250 1168 0
1159 1250 -1168 0
-1159 -1251 1169 0
1159 1251 -1169 0
-1159 -1252 1170 0
1159 1252 -1170 0
-1159 -1253 1171 0
1159 1253 -1171 0
-1159 -1254 1172 0
1159 1254 -1172 0
-1159 -1255 1173 0
1159 1255 -1173 0
-1159 -1256 1174 0
1159 1256 -1174 0
-1159 -1257 1175 0
1159 1257 -1175 0
-1159 -1258 1176 0
1159 1258 -1176 0
-1159 -1259 1177 0
1159 1259 -1177 0
-1159 -1260 1178 0
1159 1260 -1178 0
-1160 -1261 1161 0
1160 1261 -1161 0
-1160 -1262 1162 0
1160 1262 -1162 0
-1160 -1263 1163 0
1160 1263 -1163 0
-1160 -1264 1164 0
1160 1264 -1164 0
-1160 -1265 1165 0
1160 1265 -1165 0
-1160 -1266 1166 0
1160 1266 -1166 0
-1160 -1267 1167 0
1160 1267 -1167 0
-1160 -1268 1168 0
1160 1268 -1168 0
-1160 -1269 1169 0
1160 1269 -1169 0
-1160 -1270 1170 0
1160 1270 -1170 0
-1160 -1271 1171 0
1160 1271 -1171 0
-1160 -1272 1172 0
1160 1272 -1172 0
-1160 -1273 1173 0
1160 1273 -1173 0
-1160 -1274 1174 0
1160 1274 -1174 0
-1160 -1275 1175 0
1160 1275 -1175 0
-1160 -1276 1176 0
1160 1276 -1176 0
-1160 -1277 1177 0
1160 1277 -1177 0
-1160 -1278 1178 0
1160 1278 -1178 0
-1161 -1279 1162 0
1161 1279 -1162 0
-1161 -1280 1163 0
1161 1280 -1163 0
-1161 -1281 1164 0
1161 1281 -1164 0
-1161 -1282 1165 0
1161 1282 -1165 0
-1161 -1283 1166 0
1161 1283 -1166 0
-1161 -1284 1167 0
1161 1284 -1167 0
-1161 -1285 1168 0
1161 1285 -1168 0
-1161 -1286 1169 0
1161 1286 -1169 0
-1161 -1287 1170 0
1161 1287 -1170 0
-1161 -1288 1171 0
1161 1288 -1171 0
-1161 -1289 1172 0
1161 1289 -1172 0
-1161 -1290 1173 0
1161 1290 -1173 0
-1161 -1291 1174 0
1161 1291 -1174 0
-1161 -1292 1175 0
1161 1292 -1175 0
-1161 -1293 1176 0
1161 1293 -1176 0
-1161 -1294 1177 0
1161 1294 -1177 0
-1161 -1295 1178 0
1161 1295 -1178 0
-1162 -1296 1163 0
1162 1296 -1163 0
-1162 -1297 1164 0
1162 1297 -1164 0
-1162 -1298 1165 0
1162 1298 -1165 0
-1162 -1299 1166 0
1162 1299 -1166 0
-1162 -1300 1167 0
1162 1300 -1167 0
-1162 -1301 1168 0
1162 1301 -1168 0
-1162 -1302 1169 0
1162 1302 -1169 0
-1162 -1303 1170 0
1162 1303 -1170 0
-1162 -1304 1171 0
1162 1304 -1171 0
-1162 -1305 1172 0
1162 1305 -1172 0
-1162 -1306 1173 0
1162 1306 -1173 0
-1162 -1307 1174 0
1162 1307 -1174 0
-1162 -1308 1175 0
1162 1308 -1175 0
-1162 -1309 1176 0
1162 1309 -1176 0
-1162 -1310 1177 0
1162 1310 -1177 0
-1162 -1311 1178 0
1162 1311 -1178 0
-1163 -1312 1164 0
1163 1312 -1164 0
-1163 -1313 1165 0
1163 1313 -1165 0
-1163 -1314 1166 0
1163 1314 -1166 0
-1163 -1315 1167 0
1163 1315 -1167 0
-1163 -1316 1168 0
1163 1316 -1168 0
-1163 -1317 1169 0
1163 1317 -1169 0
-1163 -1318 1170 0
1163 1318 -1170 0
-1163 -1319 1171 0
1163 1319 -1171 0
-1163 -1320 1172 0
1163 1320 -1172 0
-1163 -1321 1173 0
1163 1321 -1173 0
-1163 -1322 1174 0
1163 1322 -1174 0
-1163 -1323 1175 0
1163 1323 -1175 0
-1163 -1324 1176 0
1163 1324 -1176 0
-1163 -1325 1177 0
1163 1325 -1177 0
-1163 -1326 1178 0
1163 1326 -1178 0
-1164 -1327 1165 0
1164 1327 -1165 0
-1164 -1328 1166 0
1164 1328 -1166 0
-1164 -1329 1167 0
1164 1329 -1167 0
-1164 -1330 1168 0
1164 1330 -1168 0
-1164 -1331 1169 0
1164 1331 -1169 0
-1164 -1332 1170 0
1164 1332 -1170 0
-1164 -1333 1171 0
1164 1333 -1171 0
-1164 -1334 1172 0
1164 1334 -1172 0
-1164 -1335 1173 0
1164 1335 -1173 0
-1164 -1336 1174 0
1164 1336 -1174 0
-1164 -1337 1175 0
1164 1337 -1175 0
-1164 -1338 1176 0
1164 1338 -1176 0
-1164 -1339 1177 0
1164 1339 -1177 0
-1164 -1340 1178 0
1164 1340 -1178 0
-1165 -1341 1166 0
1165 1341 -1166 0
-1165 -1342 1167 0
1165 1342 -1167 0
-1165 -1343 1168 0
1165 1343 -1168 0
-1165 -1344 1169 0
1165 1344 -1169 0
-1165 -1345 1170 0
1165 1345 -1170 0
-1165 -1346 1171 0
1165 1346 -1171 0
-1165 -1347 1172 0
1165 1347 -1172 0
-1165 -1348 1173 0
1165 1348 -1173 0
-1165 -1349 1174 0
1165 1349 -1174 0
-1165 -1350 1175 0
1165 1350 -1175 0
-1165 -1351 1176 0
1165 1351 -1176 0
-1165 -1352 1177 0
1165 1352 -1177 0
-1165 -1353 1178 0
1165 1353 -1178 0
-1166 -1354 1167 0
1166 1354 -1167 0
-1166 -1355 1168 0
1166 1355 -1168 0
-1166 -1356 1169 0
1166 1356 -1169 0
-1166 -1357 1170 0
1166 1357 -1170 0
-1166 -1358 1171 0
1166 1358 -1171 0
-1166 -1359 1172 0
1166 1359 -1172 0
-1166 -1360 1173 0
1166 1360 -1173 0
-1166 -1361 1174 0
1166 1361 -1174 0
-1166 -1362 1175 0
1166 1362 -1175 0
-1166 -1363 1176 0
1166 1363 -1176 0
-1166 -1364 1177 0
1166 1364 -1177 0
-1166 -1365 1178 0
1166 1365 -1178 0
-1167 -1366 1168 0
1167 1366 -1168 0
-1167 -1367 1169 0
1167 1367 -1169 0
-1167 -1368 1170 0
1167 1368 -1170 0
-1167 -1369 1171 0
1167 1369 -1171 0
-1167 -1370 1172 0
1167 1370 -1172 0
-1167 -1371 1173 0
1167 1371 -1173 0
-1167 -1372 1174 0
1167 1372 -1174 0
-1167 -1373 1175 0
1167 1373 -1175 0
-1167 -1374 1176 0
1167 1374 -1176 0
-1167 -1375 1177 0
1167 1375 -1177 0
-1167 -1376 1178 0
1167 1376 -1178 0
-1168 -1377 1169 0
1168 1377 -1169 0
-1168 -1378 1170 0
1168 1378 -1170 0
-1168 -1379 1171 0
1168 1379 -1171 0
-1168 -1380 1172 0
1168 1380 -1172 0
-1168 -1381 1173 0
1168 1381 -1173 0
-1168 -1382 1174 0
1168 1382 -1174 0
-1168 -1383 1175 0
1168 1383 -1175 0
-1168 -1384 1176 0
1168 1384 -1176 0
-1168 -1385 1177 0
1168 1385 -1177 0
-1168 -1386 1178 0
1168 1386 -1178 0
-1169 -1387 1170 0
1169 1387 -1170 0
-1169 -1388 1171 0
1169 1388 -1171 0
-1169 -1389 1172 0
1169 1389 -1172 0
-1169 -1390 1173 0
1169 1390 -1173 0
-1169 -1391 1174 0
1169 1391 -1174 0
-1169 -1392 1175 0
1169 1392 -1175 0
-1169 -1393 1176 0
1169 1393 -1176 0
-1169 -1394 1177 0
1169 1394 -1177 0
-1169 -1395 1178 0
1169 1395 -1178 0
-1170 -1396 1171 0
1170 1396 -1171 0
-1170 -1397 1172 0
1170 1397 -1172 0
-1170 -1398 1173 0
1170 1398 -1173 0
-1170 -1399 1174 0
1170 1399 -1174 0
-1170 -1400 1175 0
1170 1400 -1175 0
-1170 -1401 1176 0
1170 1401 -1176 0
-1170 -1402 1177 0
1170 1402 -1177 0
-1170 -1403 1178 0
1170 1403 -1178 0
-1171 -1404 1172 0
1171 1404 -1172 0
-1171 -1405 1173 0
1171 1405 -1173 0
-1171 -1406 1174 0
1171 1406 -1174 0
-1171 -1407 1175 0
1171 1407 -1175 0
-1171 -1408 1176 0
1171 1408 -1176 0
-1171 -1409 1177 0
1171 1409 -1177 0
-1171 -1410 1178 0
1171 1410 -1178 0
-1172 -1411 1173 0
1172 1411 -1173 0
-1172 -1412 1174 0
1172 1412 -1174 0
-1172 -1413 1175 0
1172 1413 -1175 0
-1172 -1414 1176 0
1172 1414 -1176 0
-1172 -1415 1177 0
1172 1415 -1177 0
-1172 -1416 1178 0
1172 1416 -1178 0
-1173 -1417 1174 0
1173 1417 -1174 0
-1173 -1418 1175 0
1173 1418 -1175 0
-1173 -1419 1176 0
1173 1419 -1176 0
-1173 -1420 1177 0
1173 1420 -1177 0
-1173 -1421 1178 0
1173 1421 -1178 0
-1174 -1422 1175 0
1174 1422 -1175 0
-1174 -1423 1176 0
1174 1423 -1176 0
-1174 -1424 1177 0
1174 1424 -1177 0
-1174 -1425 1178 0
1174 1425 -1178 0
-1175 -1426 1176 0
1175 1426 -1176 0
-1175 -1427 1177 0
1175 1427 -1177 0
-1175 -1428 1178 0
1175 1428 -1178 0
-1176 -1429 1177 0
1176 1429 -1177 0
-1176 -1430 1178 0
1176 1430 -1178 0
-1177 -1431 1178 0
1177 1431 -1178 0
-1179 -1201 1180 0
1179 1201 -1180 0
-1179 -1202 1181 0
1179 1202 -1181 0
-1179 -1203 1182 0
1179 1203 -1182 0
-1179 -1204 1183 0
1179 1204 -1183 0
-1179 -1205 1184 0
1179 1205 -1184 0
-1179 -1206 1185 0
1179 1206 -1185 0
-1179 -1207 1186 0
1179 1207 -1186 0
-1179 -1208 1187 0
1179 1208 -1187 0
-1179 -1209 1188 0
1179 1209 -1188 0
-1179 -1210 1189 0
1179 1210 -1189 0
-1179 -1211 1190 0
1179 1211 -1190 0
-1179 -1212 1191 0
1179 1212 -1191 0
-1179 -1213 1192 0
1179 1213 -1192 0
-1179 -1214 1193 0
1179 1214 -1193 0
-1179 -1215 1194 0
1179 1215 -1194 0
-1179 -1216 1195 0
1179 1216 -1195 0
-1179 -1217 1196 0
1179 1217 -1196 0
-1179 -1218 1197 0
1179 1218 -1197 0
-1179 -1219 1198 0
1179 1219 -1198 0
-1179 -1220 1199 0
1179 1220 -1199 0
-1179 -1221 1200 0
1179 1221 -1200 0
-1180 -1222 1181 0
1180 1222 -1181 0
-1180 -1223 1182 0
1180 1223 -1182 0
-1180 -1224 1183 0
1180 1224 -1183 0
-1180 -1225 1184 0
1180 1225 -1184 0
-1180 -1226 1185 0
1180 1226 -1185 0
-1180 -1227 1186 0
1180 1227 -1186 0
-1180 -1228 1187 0
1180 1228 -1187 0
-1180 -1229 1188 0
1180 1229 -1188 0
-1180 -1230 1189 0
1180 1230 -1189 0
-1180 -1231 1190 0
1180 1231 -1190 0
-1180 -1232 1191 0
1180 1232 -1191 0
-1180 -1233 1192 0
1180 1233 -1192 0
-1180 -1234 1193 0
1180 1234 -1193 0
-1180 -1235 1194 0
1180 1235 -1194 0
-1180 -1236 1195 0
1180 1236 -1195 0
-1180 -1237 1196 0
1180 1237 -1196 0
-1180 -1238 1197 0
1180 1238 -1197 0
-1180 -1239 1198 0
1180 1239 -1198 0
-1180 -1240 1199 0
1180 1240 -1199 0
-1180 -1241 1200 0
1180 1241 -1200 0
-1181 -1242 1182 0
1181 1242 -1182 0
-1181 -1243 1183 0
1181 1243 -1183 0
-1181 -1244 1184 0
1181 1244 -1184 0
-1181 -1245 1185 0
1181 1245 -1185 0
-1181 -1246 1186 0
1181 1246 -1186 0
-1181 -1247 1187 0
1181 1247 -1187 0
-1181 -1248 1188 0
1181 1248 -1188 0
-1181 -1249 1189 0
1181 1249 -1189 0
-1181 -1250 1190 0
1181 1250 -1190 0
-1181 -1251 1191 0
1181 1251 -1191 0
-1181 -1252 1192 0
1181 1252 -1192 0
-1181 -1253 1193 0
1181 1253 -1193 0
-1181 -1254 1194 0
1181 1254 -1194 0
-1181 -1255 1195 0
1181 1255 -1195 0
-1181 -1256 1196 0
1181 1256 -1196 0
-1181 -1257 1197 0
1181 1257 -1197 0
-1181 -1258 1198 0
1181 1258 -1198 0
-1181 -1259 1199 0
1181 1259 -1199 0
-1181 -1260 1200 0
1181 1260 -1200 0
-1182 -1261 1183 0
1182 1261 -1183 0
-1182 -1262 1184 0
1182 1262 -1184 0
-1182 -1263 1185 0
1182 1263 -1185 0
-1182 -1264 1186 0
1182 1264 -1186 0
-1182 -1265 1187 0
1182 1265 -1187 0
-1182 -1266 1188 0
1182 1266 -1188 0
-1182 -1267 1189 0
1182 1267 -1189 0
-1182 -1268 1190 0
1182 1268 -1190 0
-1182 -1269 1191 0
1182 1269 -1191 0
-1182 -1270 1192 0
1182 1270 -1192 0
-1182 -1271 1193 0
1182 1271 -1193 0
-1182 -1272 1194 0
1182 1272 -1194 0
-1182 -1273 1195 0
1182 1273 -1195 0
-1182 -1274 1196 0
1182 1274 -1196 0
-1182 -1275 1197 0
1182 1275 -1197 0
-1182 -1276 1198 0
1182 1276 -1198 0
-1182 -1277 1199 0
1182 1277 -1199 0
-1182 -1278 1200 0
1182 1278 -1200 0
-1183 -1279 1184 0
1183 1279 -1184 0
-1183 -1280 1185 0
1183 1280 -1185 0
-1183 -1281 1186 0
1183 1281 -1186 0
-1183 -1282 1187 0
1183 1282 -1187 0
-1183 -1283 1188 0
1183 1283 -1188 0
-1183 -1284 1189 0
1183 1284 -1189 0
-1183 -1285 1190 0
1183 1285 -1190 0
-1183 -1286 1191 0
1183 1286 -1191 0
-1183 -1287 1192 0
1183 1287 -1192 0
-1183 -1288 1193 0
1183 1288 -1193 0
-1183 -1289 1194 0
1183 1289 -1194 0
-1183 -1290 1195 0
1183 1290 -1195 0
-1183 -1291 1196 0
1183 1291 -1196 0
-1183 -1292 1197 0
1183 1292 -1197 0
-1183 -1293 1198 0
1183 1293 -1198 0
-1183 -1294 1199 0
1183 1294 -1199 0
-1183 -1295 1200 0
1183 1295 -1200 0
-1184 -1296 1185 0
1184 1296 -1185 0
-1184 -1297 1186 0
1184 1297 -1186 0
-1184 -1298 1187 0
1184 1298 -1187 0
-1184 -1299 1188 0
1184 1299 -1188 0
-1184 -1300 1189 0
1184 1300 -1189 0
-1184 -1301 1190 0
1184 1301 -1190 0
-1184 -1302 1191 0
1184 1302 -1191 0
-1184 -1303 1192 0
1184 1303 -1192 0
-1184 -1304 1193 0
1184 1304 -1193 0
-1184 -1305 1194 0
1184 1305 -1194 0
-1184 -1306 1195 0
1184 1306 -1195 0
-1184 -1307 1196 0
1184 1307 -1196 0
-1184 -1308 1197 0
1184 1308 -1197 0
-1184 -1309 1198 0
1184 1309 -1198 0
-1184 -1310 1199 0
1184 1310 -1199 0
-1184 -1311 1200 0
1184 1311 -1200 0
-1185 -1312 1186 0
1185 1312 -1186 0
-1185 -1313 1187 0
1185 1313 -1187 0
-1185 -1314 1188 0
1185 1314 -1188 0
-1185 -1315 1189 0
1185 1315 -1189 0
-1185 -1316 1190 0
1185 1316 -1190 0
-1185 -1317 1191 0
1185 1317 -1191 0
-1185 -1318 1192 0
1185 1318 -1192 0
-1185 -1319 1193 0
1185 1319 -1193 0
-1185 -1320 1194 0
1185 1320 -1194 0
-1185 -1321 1195 0
1185 1321 -1195 0
-1185 -1322 1196 0
1185 1322 -1196 0
-1185 -1323 1197 0
1185 1323 -1197 0
-1185 -1324 1198 0
1185 1324 -1198 0
-1185 -1325 1199 0
1185 1325 -1199 0
-1185 -1326 1200 0
1185 1326 -1200 0
-1186 -1327 1187 0
1186 1327 -1187 0
-1186 -1328 1188 0
1186 1328 -1188 0
-1186 -1329 1189 0
1186 1329 -1189 0
-1186 -1330 1190 0
1186 1330 -1190 0
-1186 -1331 1191 0
1186 1331 -1191 0
-1186 -1332 1192 0
1186 1332 -1192 0
-1186 -1333 1193 0
1186 1333 -1193 0
-1186 -1334 1194 0
1186 1334 -1194 0
-1186 -1335 1195 0
1186 1335 -1195 0
-1186 -1336 1196 0
1186 1336 -1196 0
-1186 -1337 1197 0
1186 1337 -1197 0
-1186 -1338 1198 0
1186 1338 -1198 0
-1186 -1339 1199 0
1186 1339 -1199 0
-1186 -1340 1200 0
1186 1340 -1200 0
-1187 -1341 1188 0
1187 1341 -1188 0
-1187 -1342 1189 0
1187 1342 -1189 0
-1187 -1343 1190 0
1187 1343 -1190 0
-1187 -1344 1191 0
1187 1344 -1191 0
-1187 -1345 1192 0
1187 1345 -1192 0
-1187 -1346 1193 0
1187 1346 -1193 0
-1187 -1347 1194 0
1187 1347 -1194 0
-1187 -1348 1195 0
1187 1348 -1195 0
-1187 -1349 1196 0
1187 1349 -1196 0
-1187 -1350 1197 0
1187 1350 -1197 0
-1187 -1351 1198 0
1187 1351 -1198 0
-1187 -1352 1199 0
1187 1352 -1199 0
-1187 -1353 1200 0
1187 1353 -1200 0
-1188 -1354 1189 0
1188 1354 -1189 0
-1188 -1355 1190 0
1188 1355 -1190 0
-1188 -1356 1191 0
1188 1356 -1191 0
-1188 -1357 1192 0
1188 1357 -1192 0
-1188 -1358 1193 0
1188 1358 -1193 0
-1188 -1359 1194 0
1188 1359 -1194 0
-1188 -1360 1195 0
1188 1360 -1195 0
-1188 -1361 1196 0
1188 1361 -1196 0
-1188 -1362 1197 0
1188 1362 -1197 0
-1188 -1363 1198 0
1188 1363 -1198 0
-1188 -1364 1199 0
1188 1364 -1199 0
-1188 -1365 1200 0
1188 1365 -1200 0
-1189 -1366 1190 0
1189 1366 -1190 0
-1189 -1367 1191 0
1189 1367 -1191 0
-1189 -1368 1192 0
1189 1368 -1192 0
-1189 -1369 1193 0
1189 1369 -1193 0
-1189 -1370 1194 0
1189 1370 -1194 0
-1189 -1371 1195 0
1189 1371 -1195 0
-1189 -1372 1196 0
1189 1372 -1196 0
-1189 -1373 1197 0
1189 1373 -1197 0
-1189 -1374 1198 0
1189 1374 -1198 0
-1189 -1375 1199 0
1189 1375 -1199 0
-1189 -1376 1200 0
1189 1376 -1200 0
-1190 -1377 1191 0
1190 1377 -1191 0
-1190 -1378 1192 0
1190 1378 -1192 0
-1190 -1379 1193 0
1190 1379 -1193 0
-1190 -1380 1194 0
1190 1380 -1194 0
-1190 -1381 1195 0
1190 1381 -1195 0
-1190 -1382 1196 0
1190 1382 -1196 0
-1190 -1383 1197 0
1190 1383 -1197 0
-1190 -1384 1198 0
1190 1384 -1198 0
-1190 -1385 1199 0
1190 1385 -1199 0
-1190 -1386 1200 0
1190 1386 -1200 0
-1191 -1387 1192 0
1191 1387 -1192 0
-1191 -1388 1193 0
1191 1388 -1193 0
-1191 -1389 1194 0
1191 1389 -1194 0
-1191 -1390 1195 0
1191 1390 -1195 0
-1191 -1391 1196 0
1191 1391 -1196 0
-1191 -1392 1197 0
1191 1392 -1197 0
-1191 -1393 1198 0
1191 1393 -1198 0
-1191 -1394 1199 0
1191 1394 -1199 0
-1191 -1395 1200 0
1191 1395 -1200 0
-1192 -1396 1193 0
1192 1396 -1193 0
-1192 -1397 1194 0
1192 1397 -1194 0
-1192 -1398 1195 0
1192 1398 -1195 0
-1192 -1399 1196 0
1192 1399 -1196 0
-1192 -1400 1197 0
1192 1400 -1197 0
-1192 -1401 1198 0
1192 1401 -1198 0
-1192 -1402 1199 0
1192 1402 -1199 0
-1192 -1403 1200 0
1192 1403 -1200 0
-1193 -1404 1194 0
1193 1404 -1194 0
-1193 -1405 1195 0
1193 1405 -1195 0
-1193 -1406 1196 0
1193 1406 -1196 0
-1193 -1407 1197 0
1193 1407 -1197 0
-1193 -1408 1198 0
1193 1408 -1198 0
-1193 -1409 1199 0
1193 1409 -1199 0
-1193 -1410 1200 0
1193 1410 -1200 0
-1194 -1411 1195 0
1194 1411 -1195 0
-1194 -1412 1196 0
1194 1412 -1196 0
-1194 -1413 1197 0
1194 1413 -1197 0
-1194 -1414 1198 0
1194 1414 -1198 0
-1194 -1415 1199 0
1194 1415 -1199 0
-1194 -1416 1200 0
1194 1416 -1200 0
-1195 -1417 1196 0
1195 1417 -1196 0
-1195 -1418 1197 0
1195 1418 -1197 0
-1195 -1419 1198 0
1195 1419 -1198 0
-1195 -1420 1199 0
1195 1420 -1199 0
-1195 -1421 1200 0
1195 1421 -1200 0
-1196 -1422 1197 0
1196 1422 -1197 0
-1196 -1423 1198 0
1196 1423 -1198 0
-1196 -1424 1199 0
1196 1424 -1199 0
-1196 -1425 1200 0
1196 1425 -1200 0
-1197 -1426 1198 0
1197 1426 -1198 0
-1197 -1427 1199 0
1197 1427 -1199 0
-1197 -1428 1200 0
1197 1428 -1200 0
-1198 -1429 1199 0
1198 1429 -1199 0
-1198 -1430 1200 0
1198 1430 -1200 0
-1199 -1431 1200 0
1199 1431 -1200 0
-1201 -1222 1202 0
1201 1222 -1202 0
-1201 -1223 1203 0
1201 1223 -1203 0
-1201 -1224 1204 0
1201 1224 -1204 0
-1201 -1225 1205 0
1201 1225 -1205 0
-1201 -1226 1206 0
1201 1226 -1206 0
-1201 -1227 1207 0
1201 1227 -1207 0
-1201 -1228 1208 0
1201 1228 -1208 0
-1201 -1229 1209 0
1201 1229 -1209 0
-1201 -1230 1210 0
1201 1230 -1210 0
-1201 -1231 1211 0
1201 1231 -1211 0
-1201 -1232 1212 0
1201 1232 -1212 0
-1201 -1233 1213 0
1201 1233 -1213 0
-1201 -1234 1214 0
1201 1234 -1214 0
-1201 -1235 1215 0
1201 1235 -1215 0
-1201 -1236 1216 0
1201 1236 -1216 0
-1201 -1237 1217 0
1201 1237 -1217 0
-1201 -1238 1218 0
1201 1238 -1218 0
-1201 -1239 1219 0
1201 1239 -1219 0
-1201 -1240 1220 0
1201 1240 -1220 0
-1201 -1241 1221 0
1201 1241 -1221 0
-1202 -1242 1203 0
1202 1242 -1203 0
-1202 -1243 1204 0
1202 1243 -1204 0
-1202 -1244 1205 0
1202 1244 -1205 0
-1202 -1245 1206 0
1202 1245 -1206 0
-1202 -1246 1207 0
1202 1246 -1207 0
-1202 -1247 1208 0
1202 1247 -1208 0
-1202 -1248 1209 0
1202 1248 -1209 0
-1202 -1249 1210 0
1202 1249 -1210 0
-1202 -1250 1211 0
1202 1250 -1211 0
-1202 -1251 1212 0
1202 1251 -1212 0
-1202 -1252 1213 0
1202 1252 -1213 0
-1202 -1253 1214 0
1202 1253 -1214 0
-1202 -1254 1215 0
1202 1254 -1215 0
-1202 -1255 1216 0
1202 1255 -1216 0
-1202 -1256 1217 0
1202 1256 -1217 0
-1202 -1257 1218 0
1202 1257 -1218 0
-1202 -1258 1219 0
1202 1258 -1219 0
-1202 -1259 1220 0
1202 1259 -1220 0
-1202 -1260 1221 0
1202 1260 -1221 0
-1203 -1261 1204 0
1203 1261 -1204 0
-1203 -1262 1205 0
1203 1262 -1205 0
-1203 -1263 1206 0
1203 1263 -1206 0
-1203 -1264 1207 0
1203 1264 -1207 0
-1203 -1265 1208 0
1203 1265 -1208 0
-1203 -1266 1209 0
1203 1266 -1209 0
-1203 -1267 1210 0
1203 1267 -1210 0
-1203 -1268 1211 0
1203 1268 -1211 0
-1203 -1269 1212 0
1203 1269 -1212 0
-1203 -1270 1213 0
1203 1270 -1213 0
-1203 -1271 1214 0
1203 1271 -1214 0
-1203 -1272 1215 0
1203 1272 -1215 0
-1203 -1273 1216 0
1203 1273 -1216 0
-1203 -1274 1217 0
1203 1274 -1217 0
-1203 -1275 1218 0
1203 1275 -1218 0
-1203 -1276 1219 0
1203 1276 -1219 0
-1203 -1277 1220 0
1203 1277 -1220 0
-1203 -1278 1221 0
1203 1278 -1221 0
-1204 -1279 1205 0
1204 1279 -1205 0
-1204 -1280 1206 0
1204 1280 -1206 0
-1204 -1281 1207 0
1204 1281 -1207 0
-1204 -1282 1208 0
1204 1282 -1208 0
-1204 -1283 1209 0
1204 1283 -1209 0
-1204 -1284 1210 0
1204 1284 -1210 0
-1204 -1285 1211 0
1204 1285 -1211 0
-1204 -1286 1212 0
1204 1286 -1212 0
-1204 -1287 1213 0
1204 1287 -1213 0
-1204 -1288 1214 0
1204 1288 -1214 0
-1204 -1289 1215 0
1204 1289 -1215 0
-1204 -1290 1216 0
1204 1290 -1216 0
-1204 -1291 1217 0
1204 1291 -1217 0
-1204 -1292 1218 0
1204 1292 -1218 0
-1204 -1293 1219 0
1204 1293 -1219 0
-1204 -1294 1220 0
1204 1294 -1220 0
-1204 -1295 1221 0
1204 1295 -1221 0
-1205 -1296 1206 0
1205 1296 -1206 0
-1205 -1297 1207 0
1205 1297 -1207 0
-1205 -1298 1208 0
1205 1298 -1208 0
-1205 -1299 1209 0
1205 1299 -1209 0
-1205 -1300 1210 0
1205 1300 -1210 0
-1205 -1301 1211 0
1205 1301 -1211 0
-1205 -1302 1212 0
1205 1302 -1212 0
-1205 -1303 1213 0
1205 1303 -1213 0
-1205 -1304 1214 0
1205 1304 -1214 0
-1205 -1305 1215 0
1205 1305 -1215 0
-1205 -1306 1216 0
1205 1306 -1216 0
-1205 -1307 1217 0
1205 1307 -1217 0
-1205 -1308 1218 0
1205 1308 -1218 0
-1205 -1309 1219 0
1205 1309 -1219 0
-1205 -1310 1220 0
1205 1310 -1220 0
-1205 -1311 1221 0
1205 1311 -1221 0
-1206 -1312 1207 0
1206 1312 -1207 0
-1206 -1313 1208 0
1206 1313 -1208 0
-1206 -1314 1209 0
1206 1314 -1209 0
-1206 -1315 1210 0
1206 1315 -1210 0
-1206 -1316 1211 0
1206 1316 -1211 0
-1206 -1317 1212 0
1206 1317 -1212 0
-1206 -1318 1213 0
1206 1318 -1213 0
-1206 -1319 1214 0
1206 1319 -1214 0
-1206 -1320 1215 0
1206 1320 -1215 0
-1206 -1321 1216 0
1206 1321 -1216 0
-1206 -1322 1217 0
1206 1322 -1217 0
-1206 -1323 1218 0
1206 1323 -1218 0
-1206 -1324 1219 0
1206 1324 -1219 0
-1206 -1325 1220 0
1206 1325 -1220 0
-1206 -1326 1221 0
1206 1326 -1221 0
-1207 -1327 1208 0
1207 1327 -1208 0
-1207 -1328 1209 0
1207 1328 -1209 0
-1207 -1329 1210 0
1207 1329 -1210 0
-1207 -1330 1211 0
1207 1330 -1211 0
-1207 -1331 1212 0
1207 1331 -1212 0
-1207 -1332 1213 0
1207 1332 -1213 0
-1207 -1333 1214 0
1207 1333 -1214 0
-1207 -1334 1215 0
1207 1334 -1215 0
-1207 -1335 1216 0
1207 1335 -1216 0
-1207 -1336 1217 0
1207 1336 -1217 0
-1207 -1337 1218 0
1207 1337 -1218 0
-1207 -1338 1219 0
1207 1338 -1219 0
-1207 -1339 1220 0
1207 1339 -1220 0
-1207 -1340 1221 0
1207 1340 -1221 0
-1208 -1341 1209 0
1208 1341 -1209 0
-1208 -1342 1210 0
1208 1342 -1210 0
-1208 -1343 1211 0
1208 1343 -1211 0
-1208 -1344 1212 0
1208 1344 -1212 0
-1208 -1345 1213 0
1208 1345 -1213 0
-1208 -1346 1214 0
1208 1346 -1214 0
-1208 -1347 1215 0
1208 1347 -1215 0
-1208 -1348 1216 0
1208 1348 -1216 0
-1208 -1349 1217 0
1208 1349 -1217 0
-1208 -1350 1218 0
1208 1350 -1218 0
-1208 -1351 1219 0
1208 1351 -1219 0
-1208 -1352 1220 0
1208 1352 -1220 0
-1208 -1353 1221 0
1208 1353 -1221 0
-1209 -1354 1210 0
1209 1354 -1210 0
-1209 -1355 1211 0
1209 1355 -1211 0
-1209 -1356 1212 0
1209 1356 -1212 0
-1209 -1357 1213 0
1209 1357 -1213 0
-1209 -1358 1214 0
1209 1358 -1214 0
-1209 -1359 1215 0
1209 1359 -1215 0
-1209 -1360 1216 0
1209 1360 -1216 0
-1209 -1361 1217 0
1209 1361 -1217 0
-1209 -1362 1218 0
1209 1362 -1218 0
-1209 -1363 1219 0
1209 1363 -1219 0
-1209 -1364 1220 0
1209 1364 -1220 0
-1209 -1365 1221 0
1209 1365 -1221 0
-1210 -1366 1211 0
1210 1366 -1211 0
-1210 -1367 1212 0
1210 1367 -1212 0
-1210 -1368 1213 0
1210 1368 -1213 0
-1210 -1369 1214 0
1210 1369 -1214 0
-1210 -1370 1215 0
1210 1370 -1215 0
-1210 -1371 1216 0
1210 1371 -1216 0
-1210 -1372 1217 0
1210 1372 -1217 0
-1210 -1373 1218 0
1210 1373 -1218 0
-1210 -1374 1219 0
1210 1374 -1219 0
-1210 -1375 1220 0
1210 1375 -1220 0
-1210 -1376 1221 0
1210 1376 -1221 0
-1211 -1377 1212 0
1211 1377 -1212 0
-1211 -1378 1213 0
1211 1378 -1213 0
-1211 -1379 1214 0
1211 1379 -1214 0
-1211 -1380 1215 0
1211 1380 -1215 0
-1211 -1381 1216 0
1211 1381 -1216 0
-1211 -1382 1217 0
1211 1382 -1217 0
-1211 -1383 1218 0
1211 1383 -1218 0
-1211 -1384 1219 0
1211 1384 -1219 0
-1211 -1385 1220 0
1211 1385 -1220 0
-1211 -1386 1221 0
1211 1386 -1221 0
-1212 -1387 1213 0
1212 1387 -1213 0
-1212 -1388 1214 0
1212 1388 -1214 0
-1212 -1389 1215 0
1212 1389 -1215 0
-1212 -1390 1216 0
1212 1390 -1216 0
-1212 -1391 1217 0
1212 1391 -1217 0
-1212 -1392 1218 0
1212 1392 -1218 0
-1212 -1393 1219 0
1212 1393 -1219 0
-1212 -1394 1220 0
1212 1394 -1220 0
-1212 -1395 1221 0
1212 1395 -1221 0
-1213 -1396 1214 0
1213 1396 -1214 0
-1213 -1397 1215 0
1213 1397 -1215 0
-1213 -1398 1216 0
1213 1398 -1216 0
-1213 -1399 1217 0
1213 1399 -1217 0
-1213 -1400 1218 0
1213 1400 -1218 0
-1213 -1401 1219 0
1213 1401 -1219 0
-1213 -1402 1220 0
1213 1402 -1220 0
-1213 -1403 1221 0
1213 1403 -1221 0
-1214 -1404 1215 0
1214 1404 -1215 0
-1214 -1405 1216 0
1214 1405 -1216 0
-1214 -1406 1217 0
1214 1406 -1217 0
-1214 -1407 1218 0
1214 1407 -1218 0
-1214 -1408 1219 0
1214 1408 -1219 0
-1214 -1409 1220 0
1214 1409 -1220 0
-1214 -1410 1221 0
1214 1410 -1221 0
-1215 -1411 1216 0
1215 1411 -1216 0
-1215 -1412 1217 0
1215 1412 -1217 0
-1215 -1413 1218 0
1215 1413 -1218 0
-1215 -1414 1219 0
1215 1414 -1219 0
-1215 -1415 1220 0
1215 1415 -1220 0
-1215 -1416 1221 0
1215 1416 -1221 0
-1216 -1417 1217 0
1216 1417 -1217 0
-1216 -1418 1218 0
1216 1418 -1218 0
-1216 -1419 1219 0
1216 1419 -1219 0
-1216 -1420 1220 0
1216 1420 -1220 0
-1216 -1421 1221 0
1216 1421 -1221 0
-1217 -1422 1218 0
1217 1422 -1218 0
-1217 -1423 1219 0
1217 1423 -1219 0
-1217 -1424 1220 0
1217 1424 -1220 0
-1217 -1425 1221 0
1217 1425 -1221 0
-1218 -1426 1219 0
1218 1426 -1219 0
-1218 -1427 1220 0
1218 1427 -1220 0
-1218 -1428 1221 0
1218 1428 -1221 0
-1219 -1429 1220 0
1219 1429 -1220 0
-1219 -1430 1221 0
1219 1430 -1221 0
-1220 -1431 1221 0
1220 1431 -1221 0
-1222 -1242 1223 0
1222 1242 -1223 0
-1222 -1243 1224 0
1222 1243 -1224 0
-1222 -1244 1225 0
1222 1244 -1225 0
-1222 -1245 1226 0
1222 1245 -1226 0
-1222 -1246 1227 0
1222 1246 -1227 0
-1222 -1247 1228 0
1222 1247 -1228 0
-1222 -1248 1229 0
1222 1248 -1229 0
-1222 -1249 1230 0
1222 1249 -1230 0
-1222 -1250 1231 0
1222 1250 -1231 0
-1222 -1251 1232 0
1222 1251 -1232 0
-1222 -1252 1233 0
1222 1252 -1233 0
-1222 -1253 1234 0
1222 1253 -1234 0
-1222 -1254 1235 0
1222 1254 -1235 0
-1222 -1255 1236 0
1222 1255 -1236 0
-1222 -1256 1237 0
1222 1256 -1237 0
-1222 -1257 1238 0
1222 1257 -1238 0
-1222 -1258 1239 0
1222 1258 -1239 0
-1222 -1259 1240 0
1222 1259 -1240 0
-1222 -1260 1241 0
1222 1260 -1241 0
-1223 -1261 1224 0
1223 1261 -1224 0
-1223 -1262 1225 0
1223 1262 -1225 0
-1223 -1263 1226 0
1223 1263 -1226 0
-1223 -1264 1227 0
1223 1264 -1227 0
-1223 -1265 1228 0
1223 1265 -1228 0
-1223 -1266 1229 0
1223 1266 -1229 0
-1223 -1267 1230 0
1223 1267 -1230 0
-1223 -1268 1231 0
1223 1268 -1231 0
-1223 -1269 1232 0
1223 1269 -1232 0
-1223 -1270 1233 0
1223 1270 -1233 0
-1223 -1271 1234 0
1223 1271 -1234 0
-1223 -1272 1235 0
1223 1272 -1235 0
-1223 -1273 1236 0
1223 1273 -1236 0
-1223 -1274 1237 0
1223 1274 -1237 0
-1223 -1275 1238 0
1223 1275 -1238 0
-1223 -1276 1239 0
1223 1276 -1239 0
-1223 -1277 1240 0
1223 1277 -1240 0
-1223 -1278 1241 0
1223 1278 -1241 0
-1224 -1279 1225 0
1224 1279 -1225 0
-1224 -1280 1226 0
1224 1280 -1226 0
-1224 -1281 1227 0
1224 1281 -1227 0
-1224 -1282 1228 0
1224 1282 -1228 0
-1224 -1283 1229 0
1224 1283 -1229 0
-1224 -1284 1230 0
1224 1284 -1230 0
-1224 -1285 1231 0
1224 1285 -1231 0
-1224 -1286 1232 0
1224 1286 -1232 0
-1224 -1287 1233 0
1224 1287 -1233 0
-1224 -1288 1234 0
1224 1288 -1234 0
-1224 -1289 1235 0
1224 1289 -1235 0
-1224 -1290 1236 0
1224 1290 -1236 0
-1224 -1291 1237 0
1224 1291 -1237 0
-1224 -1292 1238 0
1224 1292 -1238 0
-1224 -1293 1239 0
1224 1293 -1239 0
-1224 -1294 1240 0
1224 1294 -1240 0
-1224 -1295 1241 0
1224 1295 -1241 0
-1225 -1296 1226 0
1225 1296 -1226 0
-1225 -1297 1227 0
1225 1297 -1227 0
-1225 -1298 1228 0
1225 1298 -1228 0
-1225 -1299 1229 0
1225 1299 -1229 0
-1225 -1300 1230 0
1225 1300 -1230 0
-1225 -1301 1231 0
1225 1301 -1231 0
-1225 -1302 1232 0
1225 1302 -1232 0
-1225 -1303 1233 0
1225 1303 -1233 0
-1225 -1304 1234 0
1225 1304 -1234 0
-1225 -1305 1235 0
1225 1305 -1235 0
-1225 -1306 1236 0
1225 1306 -1236 0
-1225 -1307 1237 0
1225 1307 -1237 0
-1225 -1308 1238 0
1225 1308 -1238 0
-1225 -1309 1239 0
1225 1309 -1239 0
-1225 -1310 1240 0
1225 1310 -1240 0
-1225 -1311 1241 0
1225 1311 -1241 0
-1226 -1312 1227 0
1226 1312 -1227 0
-1226 -1313 1228 0
1226 1313 -1228 0
-1226 -1314 1229 0
1226 1314 -1229 0
-1226 -1315 1230 0
1226 1315 -1230 0
-1226 -1316 1231 0
1226 1316 -1231 0
-1226 -1317 1232 0
1226 1317 -1232 0
-1226 -1318 1233 0
1226 1318 -1233 0
-1226 -1319 1234 0
1226 1319 -1234 0
-1226 -1320 1235 0
1226 1320 -1235 0
-1226 -1321 1236 0
1226 1321 -1236 0
-1226 -1322 1237 0
1226 1322 -1237 0
-1226 -1323 1238 0
1226 1323 -1238 0
-1226 -1324 1239 0
1226 1324 -1239 0
-1226 -1325 1240 0
1226 1325 -1240 0
-1226 -1326 1241 0
1226 1326 -1241 0
-1227 -1327 1228 0
1227 1327 -1228 0
-1227 -1328 1229 0
1227 1328 -1229 0
-1227 -1329 1230 0
1227 1329 -1230 0
-1227 -1330 1231 0
1227 1330 -1231 0
-1227 -1331 1232 0
1227 1331 -1232 0
-1227 -1332 1233 0
1227 1332 -1233 0
-1227 -1333 1234 0
1227 1333 -1234 0
-1227 -1334 1235 0
1227 1334 -1235 0
-1227 -1335 1236 0
1227 1335 -1236 0
-1227 -1336 1237 0
1227 1336 -1237 0
-1227 -1337 1238 0
1227 1337 -1238 0
-1227 -1338 1239 0
1227 1338 -1239 0
-1227 -1339 1240 0
1227 1339 -1240 0
-1227 -1340 1241 0
1227 1340 -1241 0
-1228 -1341 1229 0
1228 1341 -1229 0
-1228 -1342 1230 0
1228 1342 -1230 0
-1228 -1343 1231 0
1228 1343 -1231 0
-1228 -1344 1232 0
1228 1344 -1232 0
-1228 -1345 1233 0
1228 1345 -1233 0
-1228 -1346 1234 0
1228 1346 -1234 0
-1228 -1347 1235 0
1228 1347 -1235 0
-1228 -1348 1236 0
1228 1348 -1236 0
-1228 -1349 1237 0
1228 1349 -1237 0
-1228 -1350 1238 0
1228 1350 -1238 0
-1228 -1351 1239 0
1228 1351 -1239 0
-1228 -1352 1240 0
1228 1352 -1240 0
-1228 -1353 1241 0
1228 1353 -1241 0
-1229 -1354 1230 0
1229 1354 -1230 0
-1229 -1355 1231 0
1229 1355 -1231 0
-1229 -1356 1232 0
1229 1356 -1232 0
-1229 -1357 1233 0
1229 1357 -1233 0
-1229 -1358 1234 0
1229 1358 -1234 0
-1229 -1359 1235 0
1229 1359 -1235 0
-1229 -1360 1236 0
1229 1360 -1236 0
-1229 -1361 1237 0
1229 1361 -1237 0
-1229 -1362 1238 0
1229 1362 -1238 0
-1229 -1363 1239 0
1229 1363 -1239 0
-1229 -1364 1240 0
1229 1364 -1240 0
-1229 -1365 1241 0
1229 1365 -1241 0
-1230 -1366 1231 0
1230 1366 -1231 0
-1230 -1367 1232 0
1230 1367 -1232 0
-1230 -1368 1233 0
1230 1368 -1233 0
-1230 -1369 1234 0
1230 1369 -1234 0
-1230 -1370 1235 0
1230 1370 -1235 0
-1230 -1371 1236 0
1230 1371 -1236 0
-1230 -1372 1237 0
1230 1372 -1237 0
-1230 -1373 1238 0
1230 1373 -1238 0
-1230 -1374 1239 0
1230 1374 -1239 0
-1230 -1375 1240 0
1230 1375 -1240 0
-1230 -1376 1241 0
1230 1376 -1241 0
-1231 -1377 1232 0
1231 1377 -1232 0
-1231 -1378 1233 0
1231 1378 -1233 0
-1231 -1379 1234 0
1231 1379 -1234 0
-1231 -1380 1235 0
1231 1380 -1235 0
-1231 -1381 1236 0
1231 1381 -1236 0
-1231 -1382 1237 0
1231 1382 -1237 0
-1231 -1383 1238 0
1231 1383 -1238 0
-1231 -1384 1239 0
1231 1384 -1239 0
-1231 -1385 1240 0
1231 1385 -1240 0
-1231 -1386 1241 0
1231 1386 -1241 0
-1232 -1387 1233 0
1232 1387 -1233 0
-1232 -1388 1234 0
1232 1388 -1234 0
-1232 -1389 1235 0
1232 1389 -1235 0
-1232 -1390 1236 0
1232 1390 -1236 0
-1232 -1391 1237 0
1232 1391 -1237 0
-1232 -1392 1238 0
1232 1392 -1238 0
-1232 -1393 1239 0
1232 1393 -1239 0
-1232 -1394 1240 0
1232 1394 -1240 0
-1232 -1395 1241 0
1232 1395 -1241 0
-1233 -1396 1234 0
1233 1396 -1234 0
-1233 -1397 1235 0
1233 1397 -1235 0
-1233 -1398 1236 0
1233 1398 -1236 0
-1233 -1399 1237 0
1233 1399 -1237 0
-1233 -1400 1238 0
1233 1400 -1238 0
-1233 -1401 1239 0
1233 1401 -1239 0
-1233 -1402 1240 0
1233 1402 -1240 0
-1233 -1403 1241 0
1233 1403 -1241 0
-1234 -1404 1235 0
1234 1404 -1235 0
-1234 -1405 1236 0
1234 1405 -1236 0
-1234 -1406 1237 0
1234 1406 -1237 0
-1234 -1407 1238 0
1234 1407 -1238 0
-1234 -1408 1239 0
1234 1408 -1239 0
-1234 -1409 1240 0
1234 1409 -1240 0
-1234 -1410 1241 0
1234 1410 -1241 0
-1235 -1411 1236 0
1235 1411 -1236 0
-1235 -1412 1237 0
1235 1412 -1237 0
-1235 -1413 1238 0
1235 1413 -1238 0
-1235 -1414 1239 0
1235 1414 -1239 0
-1235 -1415 1240 0
1235 1415 -1240 0
-1235 -1416 1241 0
1235 1416 -1241 0
-1236 -1417 1237 0
1236 1417 -1237 0
-1236 -1418 1238 0
1236 1418 -1238 0
-1236 -1419 1239 0
1236 1419 -1239 0
-1236 -1420 1240 0
1236 1420 -1240 0
-1236 -1421 1241 0
1236 1421 -1241 0
-1237 -1422 1238 0
1237 1422 -1238 0
-1237 -1423 1239 0
1237 1423 -1239 0
-1237 -1424 1240 0
1237 1424 -1240 0
-1237 -1425 1241 0
1237 1425 -1241 0
-1238 -1426 1239 0
1238 1426 -1239 0
-1238 -1427 1240 0
1238 1427 -1240 0
-1238 -1428 1241 0
1238 1428 -1241 0
-1239 -1429 1240 0
1239 1429 -1240 0
-1239 -1430 1241 0
1239 1430 -1241 0
-1240 -1431 1241 0
1240 1431 -1241 0
-1242 -1261 1243 0
1242 1261 -1243 0
-1242 -1262 1244 0
1242 1262 -1244 0
-1242 -1263 1245 0
1242 1263 -1245 0
-1242 -1264 1246 0
1242 1264 -1246 0
-1242 -1265 1247 0
1242 1265 -1247 0
-1242 -1266 1248 0
1242 1266 -1248 0
-1242 -1267 1249 0
1242 1267 -1249 0
-1242 -1268 1250 0
1242 1268 -1250 0
-1242 -1269 1251 0
1242 1269 -1251 0
-1242 -1270 1252 0
1242 1270 -1252 0
-1242 -1271 1253 0
1242 1271 -1253 0
-1242 -1272 1254 0
1242 1272 -1254 0
-1242 -1273 1255 0
1242 1273 -1255 0
-1242 -1274 1256 0
1242 1274 -1256 0
-1242 -1275 1257 0
1242 1275 -1257 0
-1242 -1276 1258 0
1242 1276 -1258 0
-1242 -1277 1259 0
1242 1277 -1259 0
-1242 -1278 1260 0
1242 1278 -1260 0
-1243 -1279 1244 0
1243 1279 -1244 0
-1243 -1280 1245 0
1243 1280 -1245 0
-1243 -1281 1246 0
1243 1281 -1246 0
-1243 -1282 1247 0
1243 1282 -1247 0
-1243 -1283 1248 0
1243 1283 -1248 0
-1243 -1284 1249 0
1243 1284 -1249 0
-1243 -1285 1250 0
1243 1285 -1250 0
-1243 -1286 1251 0
1243 1286 -1251 0
-1243 -1287 1252 0
1243 1287 -1252 0
-1243 -1288 1253 0
1243 1288 -1253 0
-1243 -1289 1254 0
1243 1289 -1254 0
-1243 -1290 1255 0
1243 1290 -1255 0
-1243 -1291 1256 0
1243 1291 -1256 0
-1243 -1292 1257 0
1243 1292 -1257 0
-1243 -1293 1258 0
1243 1293 -1258 0
-1243 -1294 1259 0
1243 1294 -1259 0
-1243 -1295 1260 0
1243 1295 -1260 0
-1244 -1296 1245 0
1244 1296 -1245 0
-1244 -1297 1246 0
1244 1297 -1246 0
-1244 -1298 1247 0
1244 1298 -1247 0
-1244 -1299 1248 0
1244 1299 -1248 0
-1244 -1300 1249 0
1244 1300 -1249 0
-1244 -1301 1250 0
1244 1301 -1250 0
-1244 -1302 1251 0
1244 1302 -1251 0
-1244 -1303 1252 0
1244 1303 -1252 0
-1244 -1304 1253 0
1244 1304 -1253 0
-1244 -1305 1254 0
1244 1305 -1254 0
-1244 -1306 1255 0
1244 1306 -1255 0
-1244 -1307 1256 0
1244 1307 -1256 0
-1244 -1308 1257 0
1244 1308 -1257 0
-1244 -1309 1258 0
1244 1309 -1258 0
-1244 -1310 1259 0
1244 1310 -1259 0
-1244 -1311 1260 0
1244 1311 -1260 0
-1245 -1312 1246 0
1245 1312 -1246 0
-1245 -1313 1247 0
1245 1313 -1247 0
-1245 -1314 1248 0
1245 1314 -1248 0
-1245 -1315 1249 0
1245 1315 -1249 0
-1245 -1316 1250 0
1245 1316 -1250 0
-1245 -1317 1251 0
1245 1317 -1251 0
-1245 -1318 1252 0
1245 1318 -1252 0
-1245 -1319 1253 0
1245 1319 -1253 0
-1245 -1320 1254 0
1245 1320 -1254 0
-1245 -1321 1255 0
1245 1321 -1255 0
-1245 -1322 1256 0
1245 1322 -1256 0
-1245 -1323 1257 0
1245 1323 -1257 0
-1245 -1324 1258 0
1245 1324 -1258 0
-1245 -1325 1259 0
1245 1325 -1259 0
-1245 -1326 1260 0
1245 1326 -1260 0
-1246 -1327 1247 0
1246 1327 -1247 0
-1246 -1328 1248 0
1246 1328 -1248 0
-1246 -1329 1249 0
1246 1329 -1249 0
-1246 -1330 1250 0
1246 1330 -1250 0
-1246 -1331 1251 0
1246 1331 -1251 0
-1246 -1332 1252 0
1246 1332 -1252 0
-1246 -1333 1253 0
1246 1333 -1253 0
-1246 -1334 1254 0
1246 1334 -1254 0
-1246 -1335 1255 0
1246 1335 -1255 0
-1246 -1336 1256 0
1246 1336 -1256 0
-1246 -1337 1257 0
1246 1337 -1257 0
-1246 -1338 1258 0
1246 1338 -1258 0
-1246 -1339 1259 0
1246 1339 -1259 0
-1246 -1340 1260 0
1246 1340 -1260 0
-1247 -1341 1248 0
1247 1341 -1248 0
-1247 -1342 1249 0
1247 1342 -1249 0
-1247 -1343 1250 0
1247 1343 -1250 0
-1247 -1344 1251 0
1247 1344 -1251 0
-1247 -1345 1252 0
1247 1345 -1252 0
-1247 -1346 1253 0
1247 1346 -1253 0
-1247 -1347 1254 0
1247 1347 -1254 0
-1247 -1348 1255 0
1247 1348 -1255 0
-1247 -1349 1256 0
1247 1349 -1256 0
-1247 -1350 1257 0
1247 1350 -1257 0
-1247 -1351 1258 0
1247 1351 -1258 0
-1247 -1352 1259 0
1247 1352 -1259 0
-1247 -1353 1260 0
1247 1353 -1260 0
-1248 -1354 1249 0
1248 1354 -1249 0
-1248 -1355 1250 0
1248 1355 -1250 0
-1248 -1356 1251 0
1248 1356 -1251 0
-1248 -1357 1252 0
1248 1357 -1252 0
-1248 -1358 1253 0
1248 1358 -1253 0
-1248 -1359 1254 0
1248 1359 -1254 0
-1248 -1360 1255 0
1248 1360 -1255 0
-1248 -1361 1256 0
1248 1361 -1256 0
-1248 -1362 1257 0
1248 1362 -1257 0
-1248 -1363 1258 0
1248 1363 -1258 0
-1248 -1364 1259 0
1248 1364 -1259 0
-1248 -1365 1260 0
1248 1365 -1260 0
-1249 -1366 1250 0
1249 1366 -1250 0
-1249 -1367 1251 0
1249 1367 -1251 0
-1249 -1368 1252 0
1249 1368 -1252 0
-1249 -1369 1253 0
1249 1369 -1253 0
-1249 -1370 1254 0
1249 1370 -1254 0
-1249 -1371 1255 0
1249 1371 -1255 0
-1249 -1372 1256 0
1249 1372 -1256 0
-1249 -1373 1257 0
1249 1373 -1257 0
-1249 -1374 1258 0
1249 1374 -1258 0
-1249 -1375 1259 0
1249 1375 -1259 0
-1249 -1376 1260 0
1249 1376 -1260 0
-1250 -1377 1251 0
1250 1377 -1251 0
-1250 -1378 1252 0
1250 1378 -1252 0
-1250 -1379 1253 0
1250 1379 -1253 0
-1250 -1380 1254 0
1250 1380 -1254 0
-1250 -1381 1255 0
1250 1381 -1255 0
-1250 -1382 1256 0
1250 1382 -1256 0
-1250 -1383 1257 0
1250 1383 -1257 0
-1250 -1384 1258 0
1250 1384 -1258 0
-1250 -1385 1259 0
1250 1385 -1259 0
-1250 -1386 1260 0
1250 1386 -1260 0
-1251 -1387 1252 0
1251 1387 -1252 0
-1251 -1388 1253 0
1251 1388 -1253 0
-1251 -1389 1254 0
1251 1389 -1254 0
-1251 -1390 1255 0
1251 1390 -1255 0
-1251 -1391 1256 0
1251 1391 -1256 0
-1251 -1392 1257 0
1251 1392 -1257 0
-1251 -1393 1258 0
1251 1393 -1258 0
-1251 -1394 1259 0
1251 1394 -1259 0
-1251 -1395 1260 0
1251 1395 -1260 0
-1252 -1396 1253 0
1252 1396 -1253 0
-1252 -1397 1254 0
1252 1397 -1254 0
-1252 -1398 1255 0
1252 1398 -1255 0
-1252 -1399 1256 0
1252 1399 -1256 0
-1252 -1400 1257 0
1252 1400 -1257 0
-1252 -1401 1258 0
1252 1401 -1258 0
-1252 -1402 1259 0
1252 1402 -1259 0
-1252 -1403 1260 0
1252 1403 -1260 0
-1253 -1404 1254 0
1253 1404 -1254 0
-1253 -1405 1255 0
1253 1405 -1255 0
-1253 -1406 1256 0
1253 1406 -1256 0
-1253 -1407 1257 0
1253 1407 -1257 0
-1253 -1408 1258 0
1253 1408 -1258 0
-1253 -1409 1259 0
1253 1409 -1259 0
-1253 -1410 1260 0
1253 1410 -1260 0
-1254 -1411 1255 0
1254 1411 -1255 0
-1254 -1412 1256 0
1254 1412 -1256 0
-1254 -1413 1257 0
1254 1413 -1257 0
-1254 -1414 1258 0
1254 1414 -1258 0
-1254 -1415 1259 0
1254 1415 -1259 0
-1254 -1416 1260 0
1254 1416 -1260 0
-1255 -1417 1256 0
1255 1417 -1256 0
-1255 -1418 1257 0
1255 1418 -1257 0
-1255 -1419 1258 0
1255 1419 -1258 0
-1255 -1420 1259 0
1255 1420 -1259 0
-1255 -1421 1260 0
1255 1421 -1260 0
-1256 -1422 1257 0
1256 1422 -1257 0
-1256 -1423 1258 0
1256 1423 -1258 0
-1256 -1424 1259 0
1256 1424 -1259 0
-1256 -1425 1260 0
1256 1425 -1260 0
-1257 -1426 1258 0
1257 1426 -1258 0
-1257 -1427 1259 0
1257 1427 -1259 0
-1257 -1428 1260 0
1257 1428 -1260 0
-1258 -1429 1259 0
1258 1429 -1259 0
-1258 -1430 1260 0
1258 1430 -1260 0
-1259 -1431 1260 0
1259 1431 -1260 0
-1261 -1279 1262 0
1261 1279 -1262 0
-1261 -1280 1263 0
1261 1280 -1263 0
-1261 -1281 1264 0
1261 1281 -1264 0
-1261 -1282 1265 0
1261 1282 -1265 0
-1261 -1283 1266 0
1261 1283 -1266 0
-1261 -1284 1267 0
1261 1284 -1267 0
-1261 -1285 1268 0
1261 1285 -1268 0
-1261 -1286 1269 0
1261 1286 -1269 0
-1261 -1287 1270 0
1261 1287 -1270 0
-1261 -1288 1271 0
1261 1288 -1271 0
-1261 -1289 1272 0
1261 1289 -1272 0
-1261 -1290 1273 0
1261 1290 -1273 0
-1261 -1291 1274 0
1261 1291 -1274 0
-1261 -1292 1275 0
1261 1292 -1275 0
-1261 -1293 1276 0
1261 1293 -1276 0
-1261 -1294 1277 0
1261 1294 -1277 0
-1261 -1295 1278 0
1261 1295 -1278 0
-1262 -1296 1263 0
1262 1296 -1263 0
-1262 -1297 1264 0
1262 1297 -1264 0
-1262 -1298 1265 0
1262 1298 -1265 0
-1262 -1299 1266 0
1262 1299 -1266 0
-1262 -1300 1267 0
1262 1300 -1267 0
-1262 -1301 1268 0
1262 1301 -1268 0
-1262 -1302 1269 0
1262 1302 -1269 0
-1262 -1303 1270 0
1262 1303 -1270 0
-1262 -1304 1271 0
1262 1304 -1271 0
-1262 -1305 1272 0
1262 1305 -1272 0
-1262 -1306 1273 0
1262 1306 -1273 0
-1262 -1307 1274 0
1262 1307 -1274 0
-1262 -1308 1275 0
1262 1308 -1275 0
-1262 -1309 1276 0
1262 1309 -1276 0
-1262 -1310 1277 0
1262 1310 -1277 0
-1262 -1311 1278 0
1262 1311 -1278 0
-1263 -1312 1264 0
1263 1312 -1264 0
-1263 -1313 1265 0
1263 1313 -1265 0
-1263 -1314 1266 0
1263 1314 -1266 0
-1263 -1315 1267 0
1263 1315 -1267 0
-1263 -1316 1268 0
1263 1316 -1268 0
-1263 -1317 1269 0
1263 1317 -1269 0
-1263 -1318 1270 0
1263 1318 -1270 0
-1263 -1319 1271 0
1263 1319 -1271 0
-1263 -1320 1272 0
1263 1320 -1272 0
-1263 -1321 1273 0
1263 1321 -1273 0
-1263 -1322 1274 0
1263 1322 -1274 0
-1263 -1323 1275 0
1263 1323 -1275 0
-1263 -1324 1276 0
1263 1324 -1276 0
-1263 -1325 1277 0
1263 1325 -1277 0
-1263 -1326 1278 0
1263 1326 -1278 0
-1264 -1327 1265 0
1264 1327 -1265 0
-1264 -1328 1266 0
1264 1328 -1266 0
-1264 -1329 1267 0
1264 1329 -1267 0
-1264 -1330 1268 0
1264 1330 -1268 0
-1264 -1331 1269 0
1264 1331 -1269 0
-1264 -1332 1270 0
1264 1332 -1270 0
-1264 -1333 1271 0
1264 1333 -1271 0
-1264 -1334 1272 0
1264 1334 -1272 0
-1264 -1335 1273 0
1264 1335 -1273 0
-1264 -1336 1274 0
1264 1336 -1274 0
-1264 -1337 1275 0
1264 1337 -1275 0
-1264 -1338 1276 0
1264 1338 -1276 0
-1264 -1339 1277 0
1264 1339 -1277 0
-1264 -1340 1278 0
1264 1340 -1278 0
-1265 -1341 1266 0
1265 1341 -1266 0
-1265 -1342 1267 0
1265 1342 -1267 0
-1265 -1343 1268 0
1265 1343 -1268 0
-1265 -1344 1269 0
1265 1344 -1269 0
-1265 -1345 1270 0
1265 1345 -1270 0
-1265 -1346 1271 0
1265 1346 -1271 0
-1265 -1347 1272 0
1265 1347 -1272 0
-1265 -1348 1273 0
1265 1348 -1273 0
-1265 -1349 1274 0
1265 1349 -1274 0
-1265 -1350 1275 0
1265 1350 -1275 0
-1265 -1351 1276 0
1265 1351 -1276 0
-1265 -1352 1277 0
1265 1352 -1277 0
-1265 -1353 1278 0
1265 1353 -1278 0
-1266 -1354 1267 0
1266 1354 -1267 0
-1266 -1355 1268 0
1266 1355 -1268 0
-1266 -1356 1269 0
1266 1356 -1269 0
-1266 -1357 1270 0
1266 1357 -1270 0
-1266 -1358 1271 0
1266 1358 -1271 0
-1266 -1359 1272 0
1266 1359 -1272 0
-1266 -1360 1273 0
1266 1360 -1273 0
-1266 -1361 1274 0
1266 1361 -1274 0
-1266 -1362 1275 0
1266 1362 -1275 0
-1266 -1363 1276 0
1266 1363 -1276 0
-1266 -1364 1277 0
1266 1364 -1277 0
-1266 -1365 1278 0
1266 1365 -1278 0
-1267 -1366 1268 0
1267 1366 -1268 0
-1267 -1367 1269 0
1267 1367 -1269 0
-1267 -1368 1270 0
1267 1368 -1270 0
-1267 -1369 1271 0
1267 1369 -1271 0
-1267 -1370 1272 0
1267 1370 -1272 0
-1267 -1371 1273 0
1267 1371 -1273 0
-1267 -1372 1274 0
1267 1372 -1274 0
-1267 -1373 1275 0
1267 1373 -1275 0
-1267 -1374 1276 0
1267 1374 -1276 0
-1267 -1375 1277 0
1267 1375 -1277 0
-1267 -1376 1278 0
1267 1376 -1278 0
-1268 -1377 1269 0
1268 1377 -1269 0
-1268 -1378 1270 0
1268 1378 -1270 0
-1268 -1379 1271 0
1268 1379 -1271 0
-1268 -1380 1272 0
1268 1380 -1272 0
-1268 -1381 1273 0
1268 1381 -1273 0
-1268 -1382 1274 0
1268 1382 -1274 0
-1268 -1383 1275 0
1268 1383 -1275 0
-1268 -1384 1276 0
1268 1384 -1276 0
-1268 -1385 1277 0
1268 1385 -1277 0
-1268 -1386 1278 0
1268 1386 -1278 0
-1269 -1387 1270 0
1269 1387 -1270 0
-1269 -1388 1271 0
1269 1388 -1271 0
-1269 -1389 1272 0
1269 1389 -1272 0
-1269 -1390 1273 0
1269 1390 -1273 0
-1269 -1391 1274 0
1269 1391 -1274 0
-1269 -1392 1275 0
1269 1392 -1275 0
-1269 -1393 1276 0
1269 1393 -1276 0
-1269 -1394 1277 0
1269 1394 -1277 0
-1269 -1395 1278 0
1269 1395 -1278 0
-1270 -1396 1271 0
1270 1396 -1271 0
-1270 -1397 1272 0
1270 1397 -1272 0
-1270 -1398 1273 0
1270 1398 -1273 0
-1270 -1399 1274 0
1270 1399 -1274 0
-1270 -1400 1275 0
1270 1400 -1275 0
-1270 -1401 1276 0
1270 1401 -1276 0
-1270 -1402 1277 0
1270 1402 -1277 0
-1270 -1403 1278 0
1270 1403 -1278 0
-1271 -1404 1272 0
1271 1404 -1272 0
-1271 -1405 1273 0
1271 1405 -1273 0
-1271 -1406 1274 0
1271 1406 -1274 0
-1271 -1407 1275 0
1271 1407 -1275 0
-1271 -1408 1276 0
1271 1408 -1276 0
-1271 -1409 1277 0
1271 1409 -1277 0
-1271 -1410 1278 0
1271 1410 -1278 0
-1272 -1411 1273 0
1272 1411 -1273 0
-1272 -1412 1274 0
1272 1412 -1274 0
-1272 -1413 1275 0
1272 1413 -1275 0
-1272 -1414 1276 0
1272 1414 -1276 0
-1272 -1415 1277 0
1272 1415 -1277 0
-1272 -1416 1278 0
1272 1416 -1278 0
-1273 -1417 1274 0
1273 1417 -1274 0
-1273 -1418 1275 0
1273 1418 -1275 0
-1273 -1419 1276 0
1273 1419 -1276 0
-1273 -1420 1277 0
1273 1420 -1277 0
-1273 -1421 1278 0
1273 1421 -1278 0
-1274 -1422 1275 0
1274 1422 -1275 0
-1274 -1423 1276 0
1274 1423 -1276 0
-1274 -1424 1277 0
1274 1424 -1277 0
-1274 -1425 1278 0
1274 1425 -1278 0
-1275 -1426 1276 0
1275 1426 -1276 0
-1275 -1427 1277 0
1275 1427 -1277 0
-1275 -1428 1278 0
1275 1428 -1278 0
-1276 -1429 1277 0
1276 1429 -1277 0
-1276 -1430 1278 0
1276 1430 -1278 0
-1277 -1431 1278 0
1277 1431 -1278 0
-1279 -1296 1280 0
1279 1296 -1280 0
-1279 -1297 1281 0
1279 1297 -1281 0
-1279 -1298 1282 0
1279 1298 -1282 0
-1279 -1299 1283 0
1279 1299 -1283 0
-1279 -1300 1284 0
1279 1300 -1284 0
-1279 -1301 1285 0
1279 1301 -1285 0
-1279 -1302 1286 0
1279 1302 -1286 0
-1279 -1303 1287 0
1279 1303 -1287 0
-1279 -1304 1288 0
1279 1304 -1288 0
-1279 -1305 1289 0
1279 1305 -1289 0
-1279 -1306 1290 0
1279 1306 -1290 0
-1279 -1307 1291 0
1279 1307 -1291 0
-1279 -1308 1292 0
1279 1308 -1292 0
-1279 -1309 1293 0
1279 1309 -1293 0
-1279 -1310 1294 0
1279 1310 -1294 0
-1279 -1311 1295 0
1279 1311 -1295 0
-1280 -1312 1281 0
1280 1312 -1281 0
-1280 -1313 1282 0
1280 1313 -1282 0
-1280 -1314 1283 0
1280 1314 -1283 0
-1280 -1315 1284 0
1280 1315 -1284 0
-1280 -1316 1285 0
1280 1316 -1285 0
-1280 -1317 1286 0
1280 1317 -1286 0
-1280 -1318 1287 0
1280 1318 -1287 0
-1280 -1319 1288 0
1280 1319 -1288 0
-1280 -1320 1289 0
1280 1320 -1289 0
-1280 -1321 1290 0
1280 1321 -1290 0
-1280 -1322 1291 0
1280 1322 -1291 0
-1280 -1323 1292 0
1280 1323 -1292 0
-1280 -1324 1293 0
1280 1324 -1293 0
-1280 -1325 1294 0
1280 1325 -1294 0
-1280 -1326 1295 0
1280 1326 -1295 0
-1281 -1327 1282 0
1281 1327 -1282 0
-1281 -1328 1283 0
1281 1328 -1283 0
-1281 -1329 1284 0
1281 1329 -1284 0
-1281 -1330 1285 0
1281 1330 -1285 0
-1281 -1331 1286 0
1281 1331 -1286 0
-1281 -1332 1287 0
1281 1332 -1287 0
-1281 -1333 1288 0
1281 1333 -1288 0
-1281 -1334 1289 0
1281 1334 -1289 0
-1281 -1335 1290 0
1281 1335 -1290 0
-1281 -1336 1291 0
1281 1336 -1291 0
-1281 -1337 1292 0
1281 1337 -1292 0
-1281 -1338 1293 0
1281 1338 -1293 0
-1281 -1339 1294 0
1281 1339 -1294 0
-1281 -1340 1295 0
1281 1340 -1295 0
-1282 -1341 1283 0
1282 1341 -1283 0
-1282 -1342 1284 0
1282 1342 -1284 0
-1282 -1343 1285 0
1282 1343 -1285 0
-1282 -1344 1286 0
1282 1344 -1286 0
-1282 -1345 1287 0
1282 1345 -1287 0
-1282 -1346 1288 0
1282 1346 -1288 0
-1282 -1347 1289 0
1282 1347 -1289 0
-1282 -1348 1290 0
1282 1348 -1290 0
-1282 -1349 1291 0
1282 1349 -1291 0
-1282 -1350 1292 0
1282 1350 -1292 0
-1282 -1351 1293 0
1282 1351 -1293 0
-1282 -1352 1294 0
1282 1352 -1294 0
-1282 -1353 1295 0
1282 1353 -1295 0
-1283 -1354 1284 0
1283 1354 -1284 0
-1283 -1355 1285 0
1283 1355 -1285 0
-1283 -1356 1286 0
1283 1356 -1286 0
-1283 -1357 1287 0
1283 1357 -1287 0
-1283 -1358 1288 0
1283 1358 -1288 0
-1283 -1359 1289 0
1283 1359 -1289 0
-1283 -1360 1290 0
1283 1360 -1290 0
-1283 -1361 1291 0
1283 1361 -1291 0
-1283 -1362 1292 0
1283 1362 -1292 0
-1283 -1363 1293 0
1283 1363 -1293 0
-1283 -1364 1294 0
1283 1364 -1294 0
-1283 -1365 1295 0
1283 1365 -1295 0
-1284 -1366 1285 0
1284 1366 -1285 0
-1284 -1367 1286 0
1284 1367 -1286 0
-1284 -1368 1287 0
1284 1368 -1287 0
-1284 -1369 1288 0
1284 1369 -1288 0
-1284 -1370 1289 0
1284 1370 -1289 0
-1284 -1371 1290 0
1284 1371 -1290 0
-1284 -1372 1291 0
1284 1372 -1291 0
-1284 -1373 1292 0
1284 1373 -1292 0
-1284 -1374 1293 0
1284 1374 -1293 0
-1284 -1375 1294 0
1284 1375 -1294 0
-1284 -1376 1295 0
1284 1376 -1295 0
-1285 -1377 1286 0
1285 1377 -1286 0
-1285 -1378 1287 0
1285 1378 -1287 0
-1285 -1379 1288 0
1285 1379 -1288 0
-1285 -1380 1289 0
1285 1380 -1289 0
-1285 -1381 1290 0
1285 1381 -1290 0
-1285 -1382 1291 0
1285 1382 -1291 0
-1285 -1383 1292 0
1285 1383 -1292 0
-1285 -1384 1293 0
1285 1384 -1293 0
-1285 -1385 1294 0
1285 1385 -1294 0
-1285 -1386 1295 0
1285 1386 -1295 0
-1286 -1387 1287 0
1286 1387 -1287 0
-1286 -1388 1288 0
1286 1388 -1288 0
-1286 -1389 1289 0
1286 1389 -1289 0
-1286 -1390 1290 0
1286 1390 -1290 0
-1286 -1391 1291 0
1286 1391 -1291 0
-1286 -1392 1292 0
1286 1392 -1292 0
-1286 -1393 1293 0
1286 1393 -1293 0
-1286 -1394 1294 0
1286 1394 -1294 0
-1286 -1395 1295 0
1286 1395 -1295 0
-1287 -1396 1288 0
1287 1396 -1288 0
-1287 -1397 1289 0
1287 1397 -1289 0
-1287 -1398 1290 0
1287 1398 -1290 0
-1287 -1399 1291 0
1287 1399 -1291 0
-1287 -1400 1292 0
1287 1400 -1292 0
-1287 -1401 1293 0
1287 1401 -1293 0
-1287 -1402 1294 0
1287 1402 -1294 0
-1287 -1403 1295 0
1287 1403 -1295 0
-1288 -1404 1289 0
1288 1404 -1289 0
-1288 -1405 1290 0
1288 1405 -1290 0
-1288 -1406 1291 0
1288 1406 -1291 0
-1288 -1407 1292 0
1288 1407 -1292 0
-1288 -1408 1293 0
1288 1408 -1293 0
-1288 -1409 1294 0
1288 1409 -1294 0
-1288 -1410 1295 0
1288 1410 -1295 0
-1289 -1411 1290 0
1289 1411 -1290 0
-1289 -1412 1291 0
1289 1412 -1291 0
-1289 -1413 1292 0
1289 1413 -1292 0
-1289 -1414 1293 0
1289 1414 -1293 0
-1289 -1415 1294 0
1289 1415 -1294 0
-1289 -1416 1295 0
1289 1416 -1295 0
-1290 -1417 1291 0
1290 1417 -1291 0
-1290 -1418 1292 0
1290 1418 -1292 0
-1290 -1419 1293 0
1290 1419 -1293 0
-1290 -1420 1294 0
1290 1420 -1294 0
-1290 -1421 1295 0
1290 1421 -1295 0
-1291 -1422 1292 0
1291 1422 -1292 0
-1291 -1423 1293 0
1291 1423 -1293 0
-1291 -1424 1294 0
1291 1424 -1294 0
-1291 -1425 1295 0
1291 1425 -1295 0
-1292 -1426 1293 0
1292 1426 -1293 0
-1292 -1427 1294 0
1292 1427 -1294 0
-1292 -1428 1295 0
1292 1428 -1295 0
-1293 -1429 1294 0
1293 1429 -1294 0
-1293 -1430 1295 0
1293 1430 -1295 0
-1294 -1431 1295 0
1294 1431 -1295 0
-1296 -1312 1297 0
1296 1312 -1297 0
-1296 -1313 1298 0
1296 1313 -1298 0
-1296 -1314 1299 0
1296 1314 -1299 0
-1296 -1315 1300 0
1296 1315 -1300 0
-1296 -1316 1301 0
1296 1316 -1301 0
-1296 -1317 1302 0
1296 1317 -1302 0
-1296 -1318 1303 0
1296 1318 -1303 0
-1296 -1319 1304 0
1296 1319 -1304 0
-1296 -1320 1305 0
1296 1320 -1305 0
-1296 -1321 1306 0
1296 1321 -1306 0
-1296 -1322 1307 0
1296 1322 -1307 0
-1296 -1323 1308 0
1296 1323 -1308 0
-1296 -1324 1309 0
1296 1324 -1309 0
-1296 -1325 1310 0
1296 1325 -1310 0
-1296 -1326 1311 0
1296 1326 -1311 0
-1297 -1327 1298 0
1297 1327 -1298 0
-1297 -1328 1299 0
1297 1328 -1299 0
-1297 -1329 1300 0
1297 1329 -1300 0
-1297 -1330 1301 0
1297 1330 -1301 0
-1297 -1331 1302 0
1297 1331 -1302 0
-1297 -1332 1303 0
1297 1332 -1303 0
-1297 -1333 1304 0
1297 1333 -1304 0
-1297 -1334 1305 0
1297 1334 -1305 0
-1297 -1335 1306 0
1297 1335 -1306 0
-1297 -1336 1307 0
1297 1336 -1307 0
-1297 -1337 1308 0
1297 1337 -1308 0
-1297 -1338 1309 0
1297 1338 -1309 0
-1297 -1339 1310 0
1297 1339 -1310 0
-1297 -1340 1311 0
1297 1340 -1311 0
-1298 -1341 1299 0
1298 1341 -1299 0
-1298 -1342 1300 0
1298 1342 -1300 0
-1298 -1343 1301 0
1298 1343 -1301 0
-1298 -1344 1302 0
1298 1344 -1302 0
-1298 -1345 1303 0
1298 1345 -1303 0
-1298 -1346 1304 0
1298 1346 -1304 0
-1298 -1347 1305 0
1298 1347 -1305 0
-1298 -1348 1306 0
1298 1348 -1306 0
-1298 -1349 1307 0
1298 1349 -1307 0
-1298 -1350 1308 0
1298 1350 -1308 0
-1298 -1351 1309 0
1298 1351 -1309 0
-1298 -1352 1310 0
1298 1352 -1310 0
-1298 -1353 1311 0
1298 1353 -1311 0
-1299 -1354 1300 0
1299 1354 -1300 0
-1299 -1355 1301 0
1299 1355 -1301 0
-1299 -1356 1302 0
1299 1356 -1302 0
-1299 -1357 1303 0
1299 1357 -1303 0
-1299 -1358 1304 0
1299 1358 -1304 0
-1299 -1359 1305 0
1299 1359 -1305 0
-1299 -1360 1306 0
1299 1360 -1306 0
-1299 -1361 1307 0
1299 1361 -1307 0
-1299 -1362 1308 0
1299 1362 -1308 0
-1299 -1363 1309 0
1299 1363 -1309 0
-1299 -1364 1310 0
1299 1364 -1310 0
-1299 -1365 1311 0
1299 1365 -1311 0
-1300 -1366 1301 0
1300 1366 -1301 0
-1300 -1367 1302 0
1300 1367 -1302 0
-1300 -1368 1303 0
1300 1368 -1303 0
-1300 -1369 1304 0
1300 1369 -1304 0
-1300 -1370 1305 0
1300 1370 -1305 0
-1300 -1371 1306 0
1300 1371 -1306 0
-1300 -1372 1307 0
1300 1372 -1307 0
-1300 -1373 1308 0
1300 1373 -1308 0
-1300 -1374 1309 0
1300 1374 -1309 0
-1300 -1375 1310 0
1300 1375 -1310 0
-1300 -1376 1311 0
1300 1376 -1311 0
-1301 -1377 1302 0
1301 1377 -1302 0
-1301 -1378 1303 0
1301 1378 -1303 0
-1301 -1379 1304 0
1301 1379 -1304 0
-1301 -1380 1305 0
1301 1380 -1305 0
-1301 -1381 1306 0
1301 1381 -1306 0
-1301 -1382 1307 0
1301 1382 -1307 0
-1301 -1383 1308 0
1301 1383 -1308 0
-1301 -1384 1309 0
1301 1384 -1309 0
-1301 -1385 1310 0
1301 1385 -1310 0
-1301 -1386 1311 0
1301 1386 -1311 0
-1302 -1387 1303 0
1302 1387 -1303 0
-1302 -1388 1304 0
1302 1388 -1304 0
-1302 -1389 1305 0
1302 1389 -1305 0
-1302 -1390 1306 0
1302 1390 -1306 0
-1302 -1391 1307 0
1302 1391 -1307 0
-1302 -1392 1308 0
1302 1392 -1308 0
-1302 -1393 1309 0
1302 1393 -1309 0
-1302 -1394 1310 0
1302 1394 -1310 0
-1302 -1395 1311 0
1302 1395 -1311 0
-1303 -1396 1304 0
1303 1396 -1304 0
-1303 -1397 1305 0
1303 1397 -1305 0
-1303 -1398 1306 0
1303 1398 -1306 0
-1303 -1399 1307 0
1303 1399 -1307 0
-1303 -1400 1308 0
1303 1400 -1308 0
-1303 -1401 1309 0
1303 1401 -1309 0
-1303 -1402 1310 0
1303 1402 -1310 0
-1303 -1403 1311 0
1303 1403 -1311 0
-1304 -1404 1305 0
1304 1404 -1305 0
-1304 -1405 1306 0
1304 1405 -1306 0
-1304 -1406 1307 0
1304 1406 -1307 0
-1304 -1407 1308 0
1304 1407 -1308 0
-1304 -1408 1309 0
1304 1408 -1309 0
-1304 -1409 1310 0
1304 1409 -1310 0
-1304 -1410 1311 0
1304 1410 -1311 0
-1305 -1411 1306 0
1305 1411 -1306 0
-1305 -1412 1307 0
1305 1412 -1307 0
-1305 -1413 1308 0
1305 1413 -1308 0
-1305 -1414 1309 0
1305 1414 -1309 0
-1305 -1415 1310 0
1305 1415 -1310 0
-1305 -1416 1311 0
1305 1416 -1311 0
-1306 -1417 1307 0
1306 1417 -1307 0
-1306 -1418 1308 0
1306 1418 -1308 0
-1306 -1419 1309 0
1306 1419 -1309 0
-1306 -1420 1310 0
1306 1420 -1310 0
-1306 -1421 1311 0
1306 1421 -1311 0
-1307 -1422 1308 0
1307 1422 -1308 0
-1307 -1423 1309 0
1307 1423 -1309 0
-1307 -1424 1310 0
1307 1424 -1310 0
-1307 -1425 1311 0
1307 1425 -1311 0
-1308 -1426 1309 0
1308 1426 -1309 0
-1308 -1427 1310 0
1308 1427 -1310 0
-1308 -1428 1311 0
1308 1428 -1311 0
-1309 -1429 1310 0
1309 1429 -1310 0
-1309 -1430 1311 0
1309 1430 -1311 0
-1310 -1431 1311 0
1310 1431 -1311 0
-1312 -1327 1313 0
1312 1327 -1313 0
-1312 -1328 1314 0
1312 1328 -1314 0
-1312 -1329 1315 0
1312 1329 -1315 0
-1312 -1330 1316 0
1312 1330 -1316 0
-1312 -1331 1317 0
1312 1331 -1317 0
-1312 -1332 1318 0
1312 1332 -1318 0
-1312 -1333 1319 0
1312 1333 -1319 0
-1312 -1334 1320 0
1312 1334 -1320 0
-1312 -1335 1321 0
1312 1335 -1321 0
-1312 -1336 1322 0
1312 1336 -1322 0
-1312 -1337 1323 0
1312 1337 -1323 0
-1312 -1338 1324 0
1312 1338 -1324 0
-1312 -1339 1325 0
1312 1339 -1325 0
-1312 -1340 1326 0
1312 1340 -1326 0
-1313 -1341 1314 0
1313 1341 -1314 0
-1313 -1342 1315 0
1313 1342 -1315 0
-1313 -1343 1316 0
1313 1343 -1316 0
-1313 -1344 1317 0
1313 1344 -1317 0
-1313 -1345 1318 0
1313 1345 -1318 0
-1313 -1346 1319 0
1313 1346 -1319 0
-1313 -1347 1320 0
1313 1347 -1320 0
-1313 -1348 1321 0
1313 1348 -1321 0
-1313 -1349 1322 0
1313 1349 -1322 0
-1313 -1350 1323 0
1313 1350 -1323 0
-1313 -1351 1324 0
1313 1351 -1324 0
-1313 -1352 1325 0
1313 1352 -1325 0
-1313 -1353 1326 0
1313 1353 -1326 0
-1314 -1354 1315 0
1314 1354 -1315 0
-1314 -1355 1316 0
1314 1355 -1316 0
-1314 -1356 1317 0
1314 1356 -1317 0
-1314 -1357 1318 0
1314 1357 -1318 0
-1314 -1358 1319 0
1314 1358 -1319 0
-1314 -1359 1320 0
1314 1359 -1320 0
-1314 -1360 1321 0
1314 1360 -1321 0
-1314 -1361 1322 0
1314 1361 -1322 0
-1314 -1362 1323 0
1314 1362 -1323 0
-1314 -1363 1324 0
1314 1363 -1324 0
-1314 -1364 1325 0
1314 1364 -1325 0
-1314 -1365 1326 0
1314 1365 -1326 0
-1315 -1366 1316 0
1315 1366 -1316 0
-1315 -1367 1317 0
1315 1367 -1317 0
-1315 -1368 1318 0
1315 1368 -1318 0
-1315 -1369 1319 0
1315 1369 -1319 0
-1315 -1370 1320 0
1315 1370 -1320 0
-1315 -1371 1321 0
1315 1371 -1321 0
-1315 -1372 1322 0
1315 1372 -1322 0
-1315 -1373 1323 0
1315 1373 -1323 0
-1315 -1374 1324 0
1315 1374 -1324 0
-1315 -1375 1325 0
1315 1375 -1325 0
-1315 -1376 1326 0
1315 1376 -1326 0
-1316 -1377 1317 0
1316 1377 -1317 0
-1316 -1378 1318 0
1316 1378 -1318 0
-1316 -1379 1319 0
1316 1379 -1319 0
-1316 -1380 1320 0
1316 1380 -1320 0
-1316 -1381 1321 0
1316 1381 -1321 0
-1316 -1382 1322 0
1316 1382 -1322 0
-1316 -1383 1323 0
1316 1383 -1323 0
-1316 -1384 1324 0
1316 1384 -1324 0
-1316 -1385 1325 0
1316 1385 -1325 0
-1316 -1386 1326 0
1316 1386 -1326 0
-1317 -1387 1318 0
1317 1387 -1318 0
-1317 -1388 1319 0
1317 1388 -1319 0
-1317 -1389 1320 0
1317 1389 -1320 0
-1317 -1390 1321 0
1317 1390 -1321 0
-1317 -1391 1322 0
1317 1391 -1322 0
-1317 -1392 1323 0
1317 1392 -1323 0
-1317 -1393 1324 0
1317 1393 -1324 0
-1317 -1394 1325 0
1317 1394 -1325 0
-1317 -1395 1326 0
1317 1395 -1326 0
-1318 -1396 1319 0
1318 1396 -1319 0
-1318 -1397 1320 0
1318 1397 -1320 0
-1318 -1398 1321 0
1318 1398 -1321 0
-1318 -1399 1322 0
1318 1399 -1322 0
-1318 -1400 1323 0
1318 1400 -1323 0
-1318 -1401 1324 0
1318 1401 -1324 0
-1318 -1402 1325 0
1318 1402 -1325 0
-1318 -1403 1326 0
1318 1403 -1326 0
-1319 -1404 1320 0
1319 1404 -1320 0
-1319 -1405 1321 0
1319 1405 -1321 0
-1319 -1406 1322 0
1319 1406 -1322 0
-1319 -1407 1323 0
1319 1407 -1323 0
-1319 -1408 1324 0
1319 1408 -1324 0
-1319 -1409 1325 0
1319 1409 -1325 0
-1319 -1410 1326 0
1319 1410 -1326 0
-1320 -1411 1321 0
1320 1411 -1321 0
-1320 -1412 1322 0
1320 1412 -1322 0
-1320 -1413 1323 0
1320 1413 -1323 0
-1320 -1414 1324 0
1320 1414 -1324 0
-1320 -1415 1325 0
1320 1415 -1325 0
-1320 -1416 1326 0
1320 1416 -1326 0
-1321 -1417 1322 0
1321 1417 -1322 0
-1321 -1418 1323 0
1321 1418 -1323 0
-1321 -1419 1324 0
1321 1419 -1324 0
-1321 -1420 1325 0
1321 1420 -1325 0
-1321 -1421 1326 0
1321 1421 -1326 0
-1322 -1422 1323 0
1322 1422 -1323 0
-1322 -1423 1324 0
1322 1423 -1324 0
-1322 -1424 1325 0
1322 1424 -1325 0
-1322 -1425 1326 0
1322 1425 -1326 0
-1323 -1426 1324 0
1323 1426 -1324 0
-1323 -1427 1325 0
1323 1427 -1325 0
-1323 -1428 1326 0
1323 1428 -1326 0
-1324 -1429 1325 0
1324 1429 -1325 0
-1324 -1430 1326 0
1324 1430 -1326 0
-1325 -1431 1326 0
1325 1431 -1326 0
-1327 -1341 1328 0
1327 1341 -1328 0
-1327 -1342 1329 0
1327 1342 -1329 0
-1327 -1343 1330 0
1327 1343 -1330 0
-1327 -1344 1331 0
1327 1344 -1331 0
-1327 -1345 1332 0
1327 1345 -1332 0
-1327 -1346 1333 0
1327 1346 -1333 0
-1327 -1347 1334 0
1327 1347 -1334 0
-1327 -1348 1335 0
1327 1348 -1335 0
-1327 -1349 1336 0
1327 1349 -1336 0
-1327 -1350 1337 0
1327 1350 -1337 0
-1327 -1351 1338 0
1327 1351 -1338 0
-1327 -1352 1339 0
1327 1352 -1339 0
-1327 -1353 1340 0
1327 1353 -1340 0
-1328 -1354 1329 0
1328 1354 -1329 0
-1328 -1355 1330 0
1328 1355 -1330 0
-1328 -1356 1331 0
1328 1356 -1331 0
-1328 -1357 1332 0
1328 1357 -1332 0
-1328 -1358 1333 0
1328 1358 -1333 0
-1328 -1359 1334 0
1328 1359 -1334 0
-1328 -1360 1335 0
1328 1360 -1335 0
-1328 -1361 1336 0
1328 1361 -1336 0
-1328 -1362 1337 0
1328 1362 -1337 0
-1328 -1363 1338 0
1328 1363 -1338 0
-1328 -1364 1339 0
1328 1364 -1339 0
-1328 -1365 1340 0
1328 1365 -1340 0
-1329 -1366 1330 0
1329 1366 -1330 0
-1329 -1367 1331 0
1329 1367 -1331 0
-1329 -1368 1332 0
1329 1368 -1332 0
-1329 -1369 1333 0
1329 1369 -1333 0
-1329 -1370 1334 0
1329 1370 -1334 0
-1329 -1371 1335 0
1329 1371 -1335 0
-1329 -1372 1336 0
1329 1372 -1336 0
-1329 -1373 1337 0
1329 1373 -1337 0
-1329 -1374 1338 0
1329 1374 -1338 0
-1329 -1375 1339 0
1329 1375 -1339 0
-1329 -1376 1340 0
1329 1376 -1340 0
-1330 -1377 1331 0
1330 1377 -1331 0
-1330 -1378 1332 0
1330 1378 -1332 0
-1330 -1379 1333 0
1330 1379 -1333 0
-1330 -1380 1334 0
1330 1380 -1334 0
-1330 -1381 1335 0
1330 1381 -1335 0
-1330 -1382 1336 0
1330 1382 -1336 0
-1330 -1383 1337 0
1330 1383 -1337 0
-1330 -1384 1338 0
1330 1384 -1338 0
-1330 -1385 1339 0
1330 1385 -1339 0
-1330 -1386 1340 0
1330 1386 -1340 0
-1331 -1387 1332 0
1331 1387 -1332 0
-1331 -1388 1333 0
1331 1388 -1333 0
-1331 -1389 1334 0
1331 1389 -1334 0
-1331 -1390 1335 0
1331 1390 -1335 0
-1331 -1391 1336 0
1331 1391 -1336 0
-1331 -1392 1337 0
1331 1392 -1337 0
-1331 -1393 1338 0
1331 1393 -1338 0
-1331 -1394 1339 0
1331 1394 -1339 0
-1331 -1395 1340 0
1331 1395 -1340 0
-1332 -1396 1333 0
1332 1396 -1333 0
-1332 -1397 1334 0
1332 1397 -1334 0
-1332 -1398 1335 0
1332 1398 -1335 0
-1332 -1399 1336 0
1332 1399 -1336 0
-1332 -1400 1337 0
1332 1400 -1337 0
-1332 -1401 1338 0
1332 1401 -1338 0
-1332 -1402 1339 0
1332 1402 -1339 0
-1332 -1403 1340 0
1332 1403 -1340 0
-1333 -1404 1334 0
1333 1404 -1334 0
-1333 -1405 1335 0
1333 1405 -1335 0
-1333 -1406 1336 0
1333 1406 -1336 0
-1333 -1407 1337 0
1333 1407 -1337 0
-1333 -1408 1338 0
1333 1408 -1338 0
-1333 -1409 1339 0
1333 1409 -1339 0
-1333 -1410 1340 0
1333 1410 -1340 0
-1334 -1411 1335 0
1334 1411 -1335 0
-1334 -1412 1336 0
1334 1412 -1336 0
-1334 -1413 1337 0
1334 1413 -1337 0
-1334 -1414 1338 0
1334 1414 -1338 0
-1334 -1415 1339 0
1334 1415 -1339 0
-1334 -1416 1340 0
1334 1416 -1340 0
-1335 -1417 1336 0
1335 1417 -1336 0
-1335 -1418 1337 0
1335 1418 -1337 0
-1335 -1419 1338 0
1335 1419 -1338 0
-1335 -1420 1339 0
1335 1420 -1339 0
-1335 -1421 1340 0
1335 1421 -1340 0
-1336 -1422 1337 0
1336 1422 -1337 0
-1336 -1423 1338 0
1336 1423 -1338 0
-1336 -1424 1339 0
1336 1424 -1339 0
-1336 -1425 1340 0
1336 1425 -1340 0
-1337 -1426 1338 0
1337 1426 -1338 0
-1337 -1427 1339 0
1337 1427 -1339 0
-1337 -1428 1340 0
1337 1428 -1340 0
-1338 -1429 1339 0
1338 1429 -1339 0
-1338 -1430 1340 0
1338 1430 -1340 0
-1339 -1431 1340 0
1339 1431 -1340 0
-1341 -1354 1342 0
1341 1354 -1342 0
-1341 -1355 1343 0
1341 1355 -1343 0
-1341 -1356 1344 0
1341 1356 -1344 0
-1341 -1357 1345 0
1341 1357 -1345 0
-1341 -1358 1346 0
1341 1358 -1346 0
-1341 -1359 1347 0
1341 1359 -1347 0
-1341 -1360 1348 0
1341 1360 -1348 0
-1341 -1361 1349 0
1341 1361 -1349 0
-1341 -1362 1350 0
1341 1362 -1350 0
-1341 -1363 1351 0
1341 1363 -1351 0
-1341 -1364 1352 0
1341 1364 -1352 0
-1341 -1365 1353 0
1341 1365 -1353 0
-1342 -1366 1343 0
1342 1366 -1343 0
-1342 -1367 1344 0
1342 1367 -1344 0
-1342 -1368 1345 0
1342 1368 -1345 0
-1342 -1369 1346 0
1342 1369 -1346 0
-1342 -1370 1347 0
1342 1370 -1347 0
-1342 -1371 1348 0
1342 1371 -1348 0
-1342 -1372 1349 0
1342 1372 -1349 0
-1342 -1373 1350 0
1342 1373 -1350 0
-1342 -1374 1351 0
1342 1374 -1351 0
-1342 -1375 1352 0
1342 1375 -1352 0
-1342 -1376 1353 0
1342 1376 -1353 0
-1343 -1377 1344 0
1343 1377 -1344 0
-1343 -1378 1345 0
1343 1378 -1345 0
-1343 -1379 1346 0
1343 1379 -1346 0
-1343 -1380 1347 0
1343 1380 -1347 0
-1343 -1381 1348 0
1343 1381 -1348 0
-1343 -1382 1349 0
1343 1382 -1349 0
-1343 -1383 1350 0
1343 1383 -1350 0
-1343 -1384 1351 0
1343 1384 -1351 0
-1343 -1385 1352 0
1343 1385 -1352 0
-1343 -1386 1353 0
1343 1386 -1353 0
-1344 -1387 1345 0
1344 1387 -1345 0
-1344 -1388 1346 0
1344 1388 -1346 0
-1344 -1389 1347 0
1344 1389 -1347 0
-1344 -1390 1348 0
1344 1390 -1348 0
-1344 -1391 1349 0
1344 1391 -1349 0
-1344 -1392 1350 0
1344 1392 -1350 0
-1344 -1393 1351 0
1344 1393 -1351 0
-1344 -1394 1352 0
1344 1394 -1352 0
-1344 -1395 1353 0
1344 1395 -1353 0
-1345 -1396 1346 0
1345 1396 -1346 0
-1345 -1397 1347 0
1345 1397 -1347 0
-1345 -1398 1348 0
1345 1398 -1348 0
-1345 -1399 1349 0
1345 1399 -1349 0
-1345 -1400 1350 0
1345 1400 -1350 0
-1345 -1401 1351 0
1345 1401 -1351 0
-1345 -1402 1352 0
1345 1402 -1352 0
-1345 -1403 1353 0
1345 1403 -1353 0
-1346 -1404 1347 0
1346 1404 -1347 0
-1346 -1405 1348 0
1346 1405 -1348 0
-1346 -1406 1349 0
1346 1406 -1349 0
-1346 -1407 1350 0
1346 1407 -1350 0
-1346 -1408 1351 0
1346 1408 -1351 0
-1346 -1409 1352 0
1346 1409 -1352 0
-1346 -1410 1353 0
1346 1410 -1353 0
-1347 -1411 1348 0
1347 1411 -1348 0
-1347 -1412 1349 0
1347 1412 -1349 0
-1347 -1413 1350 0
1347 1413 -1350 0
-1347 -1414 1351 0
1347 1414 -1351 0
-1347 -1415 1352 0
1347 1415 -1352 0
-1347 -1416 1353 0
1347 1416 -1353 0
-1348 -1417 1349 0
1348 1417 -1349 0
-1348 -1418 1350 0
1348 1418 -1350 0
-1348 -1419 1351 0
1348 1419 -1351 0
-1348 -1420 1352 0
1348 1420 -1352 0
-1348 -1421 1353 0
1348 1421 -1353 0
-1349 -1422 1350 0
1349 1422 -1350 0
-1349 -1423 1351 0
1349 1423 -1351 0
-1349 -1424 1352 0
1349 1424 -1352 0
-1349 -1425 1353 0
1349 1425 -1353 0
-1350 -1426 1351 0
1350 1426 -1351 0
-1350 -1427 1352 0
1350 1427 -1352 0
-1350 -1428 1353 0
1350 1428 -1353 0
-1351 -1429 1352 0
1351 1429 -1352 0
-1351 -1430 1353 0
1351 1430 -1353 0
-1352 -1431 1353 0
1352 1431 -1353 0
-1354 -1366 1355 0
1354 1366 -1355 0
-1354 -1367 1356 0
1354 1367 -1356 0
-1354 -1368 1357 0
1354 1368 -1357 0
-1354 -1369 1358 0
1354 1369 -1358 0
-1354 -1370 1359 0
1354 1370 -1359 0
-1354 -1371 1360 0
1354 1371 -1360 0
-1354 -1372 1361 0
1354 1372 -1361 0
-1354 -1373 1362 0
1354 1373 -1362 0
-1354 -1374 1363 0
1354 1374 -1363 0
-1354 -1375 1364 0
1354 1375 -1364 0
-1354 -1376 1365 0
1354 1376 -1365 0
-1355 -1377 1356 0
1355 1377 -1356 0
-1355 -1378 1357 0
1355 1378 -1357 0
-1355 -1379 1358 0
1355 1379 -1358 0
-1355 -1380 1359 0
1355 1380 -1359 0
-1355 -1381 1360 0
1355 1381 -1360 0
-1355 -1382 1361 0
1355 1382 -1361 0
-1355 -1383 1362 0
1355 1383 -1362 0
-1355 -1384 1363 0
1355 1384 -1363 0
-1355 -1385 1364 0
1355 1385 -1364 0
-1355 -1386 1365 0
1355 1386 -1365 0
-1356 -1387 1357 0
1356 1387 -1357 0
-1356 -1388 1358 0
1356 1388 -1358 0
-1356 -1389 1359 0
1356 1389 -1359 0
-1356 -1390 1360 0
1356 1390 -1360 0
-1356 -1391 1361 0
1356 1391 -1361 0
-1356 -1392 1362 0
1356 1392 -1362 0
-1356 -1393 1363 0
1356 1393 -1363 0
-1356 -1394 1364 0
1356 1394 -1364 0
-1356 -1395 1365 0
1356 1395 -1365 0
-1357 -1396 1358 0
1357 1396 -1358 0
-1357 -1397 1359 0
1357 1397 -1359 0
-1357 -1398 1360 0
1357 1398 -1360 0
-1357 -1399 1361 0
1357 1399 -1361 0
-1357 -1400 1362 0
1357 1400 -1362 0
-1357 -1401 1363 0
1357 1401 -1363 0
-1357 -1402 1364 0
1357 1402 -1364 0
-1357 -1403 1365 0
1357 1403 -1365 0
-1358 -1404 1359 0
1358 1404 -1359 0
-1358 -1405 1360 0
1358 1405 -1360 0
-1358 -1406 1361 0
1358 1406 -1361 0
-1358 -1407 1362 0
1358 1407 -1362 0
-1358 -1408 1363 0
1358 1408 -1363 0
-1358 -1409 1364 0
1358 1409 -1364 0
-1358 -1410 1365 0
1358 1410 -1365 0
-1359 -1411 1360 0
1359 1411 -1360 0
-1359 -1412 1361 0
1359 1412 -1361 0
-1359 -1413 1362 0
1359 1413 -1362 0
-1359 -1414 1363 0
1359 1414 -1363 0
-1359 -1415 1364 0
1359 1415 -1364 0
-1359 -1416 1365 0
1359 1416 -1365 0
-1360 -1417 1361 0
1360 1417 -1361 0
-1360 -1418 1362 0
1360 1418 -1362 0
-1360 -1419 1363 0
1360 1419 -1363 0
-1360 -1420 1364 0
1360 1420 -1364 0
-1360 -1421 1365 0
1360 1421 -1365 0
-1361 -1422 1362 0
1361 1422 -1362 0
-1361 -1423 1363 0
1361 1423 -1363 0
-1361 -1424 1364 0
1361 1424 -1364 0
-1361 -1425 1365 0
1361 1425 -1365 0
-1362 -1426 1363 0
1362 1426 -1363 0
-1362 -1427 1364 0
1362 1427 -1364 0
-1362 -1428 1365 0
1362 1428 -1365 0
-1363 -1429 1364 0
1363 1429 -1364 0
-1363 -1430 1365 0
1363 1430 -1365 0
-1364 -1431 1365 0
1364 1431 -1365 0
-1366 -1377 1367 0
1366 1377 -1367 0
-1366 -1378 1368 0
1366 1378 -1368 0
-1366 -1379 1369 0
1366 1379 -1369 0
-1366 -1380 1370 0
1366 1380 -1370 0
-1366 -1381 1371 0
1366 1381 -1371 0
-1366 -1382 1372 0
1366 1382 -1372 0
-1366 -1383 1373 0
1366 1383 -1373 0
-1366 -1384 1374 0
1366 1384 -1374 0
-1366 -1385 1375 0
1366 1385 -1375 0
-1366 -1386 1376 0
1366 1386 -1376 0
-1367 -1387 1368 0
1367 1387 -1368 0
-1367 -1388 1369 0
1367 1388 -1369 0
-1367 -1389 1370 0
1367 1389 -1370 0
-1367 -1390 1371 0
1367 1390 -1371 0
-1367 -1391 1372 0
1367 1391 -1372 0
-1367 -1392 1373 0
1367 1392 -1373 0
-1367 -1393 1374 0
1367 1393 -1374 0
-1367 -1394 1375 0
1367 1394 -1375 0
-1367 -1395 1376 0
1367 1395 -1376 0
-1368 -1396 1369 0
1368 1396 -1369 0
-1368 -1397 1370 0
1368 1397 -1370 0
-1368 -1398 1371 0
1368 1398 -1371 0
-1368 -1399 1372 0
1368 1399 -1372 0
-1368 -1400 1373 0
1368 1400 -1373 0
-1368 -1401 1374 0
1368 1401 -1374 0
-1368 -1402 1375 0
1368 1402 -1375 0
-1368 -1403 1376 0
1368 1403 -1376 0
-1369 -1404 1370 0
1369 1404 -1370 0
-1369 -1405 1371 0
1369 1405 -1371 0
-1369 -1406 1372 0
1369 1406 -1372 0
-1369 -1407 1373 0
1369 1407 -1373 0
-1369 -1408 1374 0
1369 1408 -1374 0
-1369 -1409 1375 0
1369 1409 -1375 0
-1369 -1410 1376 0
1369 1410 -1376 0
-1370 -1411 1371 0
1370 1411 -1371 0
-1370 -1412 1372 0
1370 1412 -1372 0
-1370 -1413 1373 0
1370 1413 -1373 0
-1370 -1414 1374 0
1370 1414 -1374 0
-1370 -1415 1375 0
1370 1415 -1375 0
-1370 -1416 1376 0
1370 1416 -1376 0
-1371 -1417 1372 0
1371 1417 -1372 0
-1371 -1418 1373 0
1371 1418 -1373 0
-1371 -1419 1374 0
1371 1419 -1374 0
-1371 -1420 1375 0
1371 1420 -1375 0
-1371 -1421 1376 0
1371 1421 -1376 0
-1372 -1422 1373 0
1372 1422 -1373 0
-1372 -1423 1374 0
1372 1423 -1374 0
-1372 -1424 1375 0
1372 1424 -1375 0
-1372 -1425 1376 0
1372 1425 -1376 0
-1373 -1426 1374 0
1373 1426 -1374 0
-1373 -1427 1375 0
1373 1427 -1375 0
-1373 -1428 1376 0
1373 1428 -1376 0
-1374 -1429 1375 0
1374 1429 -1375 0
-1374 -1430 1376 0
1374 1430 -1376 0
-1375 -1431 1376 0
1375 1431 -1376 0
-1377 -1387 1378 0
1377 1387 -1378 0
-1377 -1388 1379 0
1377 1388 -1379 0
-1377 -1389 1380 0
1377 1389 -1380 0
-1377 -1390 1381 0
1377 1390 -1381 0
-1377 -1391 1382 0
1377 1391 -1382 0
-1377 -1392 1383 0
1377 1392 -1383 0
-1377 -1393 1384 0
1377 1393 -1384 0
-1377 -1394 1385 0
1377 1394 -1385 0
-1377 -1395 1386 0
1377 1395 -1386 0
-1378 -1396 1379 0
1378 1396 -1379 0
-1378 -1397 1380 0
1378 1397 -1380 0
-1378 -1398 1381 0
1378 1398 -1381 0
-1378 -1399 1382 0
1378 1399 -1382 0
-1378 -1400 1383 0
1378 1400 -1383 0
-1378 -1401 1384 0
1378 1401 -1384 0
-1378 -1402 1385 0
1378 1402 -1385 0
-1378 -1403 1386 0
1378 1403 -1386 0
-1379 -1404 1380 0
1379 1404 -1380 0
-1379 -1405 1381 0
1379 1405 -1381 0
-1379 -1406 1382 0
1379 1406 -1382 0
-1379 -1407 1383 0
1379 1407 -1383 0
-1379 -1408 1384 0
1379 1408 -1384 0
-1379 -1409 1385 0
1379 1409 -1385 0
-1379 -1410 1386 0
1379 1410 -1386 0
-1380 -1411 1381 0
1380 1411 -1381 0
-1380 -1412 1382 0
1380 1412 -1382 0
-1380 -1413 1383 0
1380 1413 -1383 0
-1380 -1414 1384 0
1380 1414 -1384 0
-1380 -1415 1385 0
1380 1415 -1385 0
-1380 -1416 1386 0
1380 1416 -1386 0
-1381 -1417 1382 0
1381 1417 -1382 0
-1381 -1418 1383 0
1381 1418 -1383 0
-1381 -1419 1384 0
1381 1419 -1384 0
-1381 -1420 1385 0
1381 1420 -1385 0
-1381 -1421 1386 0
1381 1421 -1386 0
-1382 -1422 1383 0
1382 1422 -1383 0
-1382 -1423 1384 0
1382 1423 -1384 0
-1382 -1424 1385 0
1382 1424 -1385 0
-1382 -1425 1386 0
1382 1425 -1386 0
-1383 -1426 1384 0
1383 1426 -1384 0
-1383 -1427 1385 0
1383 1427 -1385 0
-1383 -1428 1386 0
1383 1428 -1386 0
-1384 -1429 1385 0
1384 1429 -1385 0
-1384 -1430 1386 0
1384 1430 -1386 0
-1385 -1431 1386 0
1385 1431 -1386 0
-1387 -1396 1388 0
1387 1396 -1388 0
-1387 -1397 1389 0
1387 1397 -1389 0
-1387 -1398 1390 0
1387 1398 -1390 0
-1387 -1399 1391 0
1387 1399 -1391 0
-1387 -1400 1392 0
1387 1400 -1392 0
-1387 -1401 1393 0
1387 1401 -1393 0
-1387 -1402 1394 0
1387 1402 -1394 0
-1387 -1403 1395 0
1387 1403 -1395 0
-1388 -1404 1389 0
1388 1404 -1389 0
-1388 -1405 1390 0
1388 1405 -1390 0
-1388 -1406 1391 0
1388 1406 -1391 0
-1388 -1407 1392 0
1388 1407 -1392 0
-1388 -1408 1393 0
1388 1408 -1393 0
-1388 -1409 1394 0
1388 1409 -1394 0
-1388 -1410 1395 0
1388 1410 -1395 0
-1389 -1411 1390 0
1389 1411 -1390 0
-1389 -1412 1391 0
1389 1412 -1391 0
-1389 -1413 1392 0
1389 1413 -1392 0
-1389 -1414 1393 0
1389 1414 -1393 0
-1389 -1415 1394 0
1389 1415 -1394 0
-1389 -1416 1395 0
1389 1416 -1395 0
-1390 -1417 1391 0
1390 1417 -1391 0
-1390 -1418 1392 0
1390 1418 -1392 0
-1390 -1419 1393 0
1390 1419 -1393 0
-1390 -1420 1394 0
1390 1420 -1394 0
-1390 -1421 1395 0
1390 1421 -1395 0
-1391 -1422 1392 0
1391 1422 -1392 0
-1391 -1423 1393 0
1391 1423 -1393 0
-1391 -1424 1394 0
1391 1424 -1394 0
-1391 -1425 1395 0
1391 1425 -1395 0
-1392 -1426 1393 0
1392 1426 -1393 0
-1392 -1427 1394 0
1392 1427 -1394 0
-1392 -1428 1395 0
1392 1428 -1395 0
-1393 -1429 1394 0
1393 1429 -1394 0
-1393 -1430 1395 0
1393 1430 -1395 0
-1394 -1431 1395 0
1394 1431 -1395 0
-1396 -1404 1397 0
1396 1404 -1397 0
-1396 -1405 1398 0
1396 1405 -1398 0
-1396 -1406 1399 0
1396 1406 -1399 0
-1396 -1407 1400 0
1396 1407 -1400 0
-1396 -1408 1401 0
1396 1408 -1401 0
-1396 -1409 1402 0
1396 1409 -1402 0
-1396 -1410 1403 0
1396 1410 -1403 0
-1397 -1411 1398 0
1397 1411 -1398 0
-1397 -1412 1399 0
1397 1412 -1399 0
-1397 -1413 1400 0
1397 1413 -1400 0
-1397 -1414 1401 0
1397 1414 -1401 0
-1397 -1415 1402 0
1397 1415 -1402 0
-1397 -1416 1403 0
1397 1416 -1403 0
-1398 -1417 1399 0
1398 1417 -1399 0
-1398 -1418 1400 0
1398 1418 -1400 0
-1398 -1419 1401 0
1398 1419 -1401 0
-1398 -1420 1402 0
1398 1420 -1402 0
-1398 -1421 1403 0
1398 1421 -1403 0
-1399 -1422 1400 0
1399 1422 -1400 0
-1399 -1423 1401 0
1399 1423 -1401 0
-1399 -1424 1402 0
1399 1424 -1402 0
-1399 -1425 1403 0
1399 1425 -1403 0
-1400 -1426 1401 0
1400 1426 -1401 0
-1400 -1427 1402 0
1400 1427 -1402 0
-1400 -1428 1403 0
1400 1428 -1403 0
-1401 -1429 1402 0
1401 1429 -1402 0
-1401 -1430 1403 0
1401 1430 -1403 0
-1402 -1431 1403 0
1402 1431 -1403 0
-1404 -1411 1405 0
1404 1411 -1405 0
-1404 -1412 1406 0
1404 1412 -1406 0
-1404 -1413 1407 0
1404 1413 -1407 0
-1404 -1414 1408 0
1404 1414 -1408 0
-1404 -1415 1409 0
1404 1415 -1409 0
-1404 -1416 1410 0
1404 1416 -1410 0
-1405 -1417 1406 0
1405 1417 -1406 0
-1405 -1418 1407 0
1405 1418 -1407 0
-1405 -1419 1408 0
1405 1419 -1408 0
-1405 -1420 1409 0
1405 1420 -1409 0
-1405 -1421 1410 0
1405 1421 -1410 0
-1406 -1422 1407 0
1406 1422 -1407 0
-1406 -1423 1408 0
1406 1423 -1408 0
-1406 -1424 1409 0
1406 1424 -1409 0
-1406 -1425 1410 0
1406 1425 -1410 0
-1407 -1426 1408 0
1407 1426 -1408 0
-1407 -1427 1409 0
1407 1427 -1409 0
-1407 -1428 1410 0
1407 1428 -1410 0
-1408 -1429 1409 0
1408 1429 -1409 0
-1408 -1430 1410 0
1408 1430 -1410 0
-1409 -1431 1410 0
1409 1431 -1410 0
-1411 -1417 1412 0
1411 1417 -1412 0
-1411 -1418 1413 0
1411 1418 -1413 0
-1411 -1419 1414 0
1411 1419 -1414 0
-1411 -1420 1415 0
1411 1420 -1415 0
-1411 -1421 1416 0
1411 1421 -1416 0
-1412 -1422 1413 0
1412 1422 -1413 0
-1412 -1423 1414 0
1412 1423 -1414 0
-1412 -1424 1415 0
1412 1424 -1415 0
-1412 -1425 1416 0
1412 1425 -1416 0
-1413 -1426 1414 0
1413 1426 -1414 0
-1413 -1427 1415 0
1413 1427 -1415 0
-1413 -1428 1416 0
1413 1428 -1416 0
-1414 -1429 1415 0
1414 1429 -1415 0
-1414 -1430 1416 0
1414 1430 -1416 0
-1415 -1431 1416 0
1415 1431 -1416 0
-1417 -1422 1418 0
1417 1422 -1418 0
-1417 -1423 1419 0
1417 1423 -1419 0
-1417 -1424 1420 0
1417 1424 -1420 0
-1417 -1425 1421 0
1417 1425 -1421 0
-1418 -1426 1419 0
1418 1426 -1419 0
-1418 -1427 1420 0
1418 1427 -1420 0
-1418 -1428 1421 0
1418 1428 -1421 0
-1419 -1429 1420 0
1419 1429 -1420 0
-1419 -1430 1421 0
1419 1430 -1421 0
-1420 -1431 1421 0
1420 1431 -1421 0
-1422 -1426 1423 0
1422 1426 -1423 0
-1422 -1427 1424 0
1422 1427 -1424 0
-1422 -1428 1425 0
1422 1428 -1425 0
-1423 -1429 1424 0
1423 1429 -1424 0
-1423 -1430 1425 0
1423 1430 -1425 0
-1424 -1431 1425 0
1424 1431 -1425 0
-1426 -1429 1427 0
1426 1429 -1427 0
-1426 -1430 1428 0
1426 1430 -1428 0
-1427 -1431 1428 0
1427 1431 -1428 0
-1429 -1431 1430 0
1429 1431 -1430 0
-1 -2 -106 0
1 2 106 0
-2 -106 -157 0
2 106 157 0
-106 -157 -207 0
106 157 207 0
-157 -207 -256 0
157 207 256 0
-207 -256 -304 0
207 256 304 0
-256 -304 -351 0
256 304 351 0
-304 -351 -397 0
304 351 397 0
-351 -397 -442 0
351 397 442 0
-397 -442 -486 0
397 442 486 0
-442 -486 -529 0
442 486 529 0
-486 -529 -571 0
486 529 571 0
-529 -571 -612 0
529 571 612 0
-571 -612 -652 0
571 612 652 0
-612 -652 -691 0
612 652 691 0
-652 -691 -729 0
652 691 729 0
-691 -729 -766 0
691 729 766 0
-729 -766 -802 0
729 766 802 0
-766 -802 -837 0
766 802 837 0
-802 -837 -871 0
802 837 871 0
-837 -871 -904 0
837 871 904 0
-871 -904 -936 0
871 904 936 0
-904 -936 -967 0
904 936 967 0
-936 -967 -997 0
936 967 997 0
-967 -997 -1026 0
967 997 1026 0
-997 -1026 -1054 0
997 1026 1054 0
-1026 -1054 -1081 0
1026 1054 1081 0
-1054 -1081 -1107 0
1054 1081 1107 0
-1081 -1107 -1132 0
1081 1107 1132 0
-1107 -1132 -1156 0
1107 1132 1156 0
-1132 -1156 -1179 0
1132 1156 1179 0
-1156 -1179 -1201 0
1156 1179 1201 0
-1179 -1201 -1222 0
1179 1201 1222 0
-1201 -1222 -1242 0
1201 1222 1242 0
-1222 -1242 -1261 0
1222 1242 1261 0
-1242 -1261 -1279 0
1242 1261 1279 0
-1261 -1279 -1296 0
1261 1279 1296 0
-1279 -1296 -1312 0
1279 1296 1312 0
-1296 -1312 -1327 0
1296 1312 1327 0
-1312 -1327 -1341 0
1312 1327 1341 0
-1327 -1341 -1354 0
1327 1341 1354 0
-1341 -1354 -1366 0
1341 1354 1366 0
-1354 -1366 -1377 0
1354 1366 1377 0
-1366 -1377 -1387 0
1366 1377 1387 0
-1377 -1387 -1396 0
1377 1387 1396 0
-1387 -1396 -1404 0
1387 1396 1404 0
-1396 -1404 -1411 0
1396 1404 1411 0
-1404 -1411 -1417 0
1404 1411 1417 0
-1411 -1417 -1422 0
1411 1417 1422 0
-1417 -1422 -1426 0
1417 1422 1426 0
-1422 -1426 -1429 0
1422 1426 1429 0
-1426 -1429 -1431 0
1426 1429 1431 0
-3 -107 -208 0
3 107 208 0
-4 -158 -257 0
4 158 257 0
-107 -208 -305 0
107 208 305 0
-158 -257 -352 0
158 257 352 0
-208 -305 -398 0
208 305 398 0
-257 -352 -443 0
257 352 443 0
-305 -398 -487 0
305 398 487 0
-352 -443 -530 0
352 443 530 0
-398 -487 -572 0
398 487 572 0
-443 -530 -613 0
443 530 613 0
-487 -572 -653 0
487 572 653 0
-530 -613 -692 0
530 613 692 0
-572 -653 -730 0
572 653 730 0
-613 -692 -767 0
613 692 767 0
-653 -730 -803 0
653 730 803 0
-692 -767 -838 0
692 767 838 0
-730 -803 -872 0
730 803 872 0
-767 -838 -905 0
767 838 905 0
-803 -872 -937 0
803 872 937 0
-838 -905 -968 0
838 905 968 0
-872 -937 -998 0
872 937 998 0
-905 -968 -1027 0
905 968 1027 0
-937 -998 -1055 0
937 998 1055 0
-968 -1027 -1082 0
968 1027 1082 0
-998 -1055 -1108 0
998 1055 1108 0
-1027 -1082 -1133 0
1027 1082 1133 0
-1055 -1108 -1157 0
1055 1108 1157 0
-1082 -1133 -1180 0
1082 1133 1180 0
-1108 -1157 -1202 0
1108 1157 1202 0
-1133 -1180 -1223 0
1133 1180 1223 0
-1157 -1202 -1243 0
1157 1202 1243 0
-1180 -1223 -1262 0
1180 1223 1262 0
-1202 -1243 -1280 0
1202 1243 1280 0
-1223 -1262 -1297 0
1223 1262 1297 0
-1243 -1280 -1313 0
1243 1280 1313 0
-1262 -1297 -1328 0
1262 1297 1328 0
-1280 -1313 -1342 0
1280 1313 1342 0
-1297 -1328 -1355 0
1297 1328 1355 0
-1313 -1342 -1367 0
1313 1342 1367 0
-1328 -1355 -1378 0
1328 1355 1378 0
-1342 -1367 -1388 0
1342 1367 1388 0
-1355 -1378 -1397 0
1355 1378 1397 0
-1367 -1388 -1405 0
1367 1388 1405 0
-1378 -1397 -1412 0
1378 1397 1412 0
-1388 -1405 -1418 0
1388 1405 1418 0
-1397 -1412 -1423 0
1397 1412 1423 0
-1405 -1418 -1427 0
1405 1418 1427 0
-1412 -1423 -1430 0
1412 1423 1430 0
-5 -159 -306 0
5 159 306 0
-6 -209 -353 0
6 209 353 0
-108 -258 -399 0
108 258 399 0
-159 -306 -444 0
159 306 444 0
-209 -353 -488 0
209 353 488 0
-258 -399 -531 0
258 399 531 0
-306 -444 -573 0
306 444 573 0
-353 -488 -614 0
353 488 614 0
-399 -531 -654 0
399 531 654 0
-444 -573 -693 0
444 573 693 0
-488 -614 -731 0
488 614 731 0
-531 -654 -768 0
531 654 768 0
-573 -693 -804 0
573 693 804 0
-614 -731 -839 0
614 731 839 0
-654 -768 -873 0
654 768 873 0
-693 -804 -906 0
693 804 906 0
-731 -839 -938 0
731 839 938 0
-768 -873 -969 0
768 873 969 0
-804 -906 -999 0
804 906 999 0
-839 -938 -1028 0
839 938 1028 0
-873 -969 -1056 0
873 969 1056 0
-906 -999 -1083 0
906 999 1083 0
-938 -1028 -1109 0
938 1028 1109 0
-969 -1056 -1134 0
969 1056 1134 0
-999 -1083 -1158 0
999 1083 1158 0
-1028 -1109 -1181 0
1028 1109 1181 0
-1056 -1134 -1203 0
1056 1134 1203 0
-1083 -1158 -1224 0
1083 1158 1224 0
-1109 -1181 -1244 0
1109 1181 1244 0
-1134 -1203 -1263 0
1134 1203 1263 0
-1158 -1224 -1281 0
1158 1224 1281 0
-1181 -1244 -1298 0
1181 1244 1298 0
-1203 -1263 -1314 0
1203 1263 1314 0
-1224 -1281 -1329 0
1224 1281 1329 0
-1244 -1298 -1343 0
1244 1298 1343 0
-1263 -1314 -1356 0
1263 1314 1356 0
-1281 -1329 -1368 0
1281 1329 1368 0
-1298 -1343 -1379 0
1298 1343 1379 0
-1314 -1356 -1389 0
1314 1356 1389 0
-1329 -1368 -1398 0
1329 1368 1398 0
-1343 -1379 -1406 0
1343 1379 1406 0
-1356 -1389 -1413 0
1356 1389 1413 0
-1368 -1398 -1419 0
1368 1398 1419 0
-1379 -1406 -1424 0
1379 1406 1424 0
-1389 -1413 -1428 0
1389 1413 1428 0
-7 -210 -400 0
7 210 400 0
-8 -259 -445 0
8 259 445 0
-109 -307 -489 0
109 307 489 0
-160 -354 -532 0
160 354 532 0
-210 -400 -574 0
210 400 574 0
-259 -445 -615 0
259 445 615 0
-307 -489 -655 0
307 489 655 0
-354 -532 -694 0
354 532 694 0
-400 -574 -732 0
400 574 732 0
-445 -615 -769 0
445 615 769 0
-489 -655 -805 0
489 655 805 0
-532 -694 -840 0
532 694 840 0
-574 -732 -874 0
574 732 874 0
-615 -769 -907 0
615 769 907 0
-655 -805 -939 0
655 805 939 0
-694 -840 -970 0
694 840 970 0
-732 -874 -1000 0
732 874 1000 0
-769 -907 -1029 0
769 907 1029 0
-805 -939 -1057 0
805 939 1057 0
-840 -970 -1084 0
840 970 1084 0
-874 -1000 -1110 0
874 1000 1110 0
-907 -1029 -1135 0
907 1029 1135 0
-939 -1057 -1159 0
939 1057 1159 0
-970 -1084 -1182 0
970 1084 1182 0
-1000 -1110 -1204 0
1000 1110 1204 0
-1029 -1135 -1225 0
1029 1135 1225 0
-1057 -1159 -1245 0
1057 1159 1245 0
-1084 -1182 -1264 0
1084 1182 1264 0
-1110 -1204 -1282 0
1110 1204 1282 0
-1135 -1225 -1299 0
1135 1225 1299 0
-1159 -1245 -1315 0
1159 1245 1315 0
-1182 -1264 -1330 0
1182 1264 1330 0
-1204 -1282 -1344 0
1204 1282 1344 0
-1225 -1299 -1357 0
1225 1299 1357 0
-1245 -1315 -1369 0
1245 1315 1369 0
-1264 -1330 -1380 0
1264 1330 1380 0
-1282 -1344 -1390 0
1282 1344 1390 0
-1299 -1357 -1399 0
1299 1357 1399 0
-1315 -1369 -1407 0
1315 1369 1407 0
-1330 -1380 -1414 0
1330 1380 1414 0
-1344 -1390 -1420 0
1344 1390 1420 0
-1357 -1399 -1425 0
1357 1399 1425 0
-9 -260 -490 0
9 260 490 0
-10 -308 -533 0
10 308 533 0
-110 -355 -575 0
110 355 575 0
-161 -401 -616 0
161 401 616 0
-211 -446 -656 0
211 446 656 0
-260 -490 -695 0
260 490 695 0
-308 -533 -733 0
308 533 733 0
-355 -575 -770 0
355 575 770 0
-401 -616 -806 0
401 616 806 0
-446 -656 -841 0
446 656 841 0
-490 -695 -875 0
490 695 875 0
-533 -733 -908 0
533 733 908 0
-575 -770 -940 0
575 770 940 0
-616 -806 -971 0
616 806 971 0
-656 -841 -1001 0
656 841 1001 0
-695 -875 -1030 0
695 875 1030 0
-733 -908 -1058 0
733 908 1058 0
-770 -940 -1085 0
770 940 1085 0
-806 -971 -1111 0
806 971 1111 0
-841 -1001 -1136 0
841 1001 1136 0
-875 -1030 -1160 0
875 1030 1160 0
-908 -1058 -1183 0
908 1058 1183 0
-940 -1085 -1205 0
940 1085 1205 0
-971 -1111 -1226 0
971 1111 1226 0
-1001 -1136 -1246 0
1001 1136 1246 0
-1030 -1160 -1265 0
1030 1160 1265 0
-1058 -1183 -1283 0
1058 1183 1283 0
-1085 -1205 -1300 0
1085 1205 1300 0
-1111 -1226 -1316 0
1111 1226 1316 0
-1136 -1246 -1331 0
1136 1246 1331 0
-1160 -1265 -1345 0
1160 1265 1345 0
-1183 -1283 -1358 0
1183 1283 1358 0
-1205 -1300 -1370 0
1205 1300 1370 0
-1226 -1316 -1381 0
1226 1316 1381 0
-1246 -1331 -1391 0
1246 1331 1391 0
-1265 -1345 -1400 0
1265 1345 1400 0
-1283 -1358 -1408 0
1283 1358 1408 0
-1300 -1370 -1415 0
1300 1370 1415 0
-1316 -1381 -1421 0
1316 1381 1421 0
-11 -309 -576 0
11 309 576 0
-12 -356 -617 0
12 356 617 0
-111 -402 -657 0
111 402 657 0
-162 -447 -696 0
162 447 696 0
-212 -491 -734 0
212 491 734 0
-261 -534 -771 0
261 534 771 0
-309 -576 -807 0
309 576 807 0
-356 -617 -842 0
356 617 842 0
-402 -657 -876 0
402 657 876 0
-447 -696 -909 0
447 696 909 0
-491 -734 -941 0
491 734 941 0
-534 -771 -972 0
534 771 972 0
-576 -807 -1002 0
576 807 1002 0
-617 -842 -1031 0
617 842 1031 0
-657 -876 -1059 0
657 876 1059 0
-696 -909 -1086 0
696 909 1086 0
-734 -941 -1112 0
734 941 1112 0
-771 -972 -1137 0
771 972 1137 0
-807 -1002 -1161 0
807 1002 1161 0
-842 -1031 -1184 0
842 1031 1184 0
-876 -1059 -1206 0
876 1059 1206 0
-909 -1086 -1227 0
909 1086 1227 0
-941 -1112 -1247 0
941 1112 1247 0
-972 -1137 -1266 0
972 1137 1266 0
-1002 -1161 -1284 0
1002 1161 1284 0
-1031 -1184 -1301 0
1031 1184 1301 0
-1059 -1206 -1317 0
1059 1206 1317 0
-1086 -1227 -1332 0
1086 1227 1332 0
-1112 -1247 -1346 0
1112 1247 1346 0
-1137 -1266 -1359 0
1137 1266 1359 0
-1161 -1284 -1371 0
1161 1284 1371 0
-1184 -1301 -1382 0
1184 1301 1382 0
-1206 -1317 -1392 0
1206 1317 1392 0
-1227 -1332 -1401 0
1227 1332 1401 0
-1247 -1346 -1409 0
1247 1346 1409 0
-1266 -1359 -1416 0
1266 1359 1416 0
-13 -357 -658 0
13 357 658 0
-14 -403 -697 0
14 403 697 0
-112 -448 -735 0
112 448 735 0
-163 -492 -772 0
163 492 772 0
-213 -535 -808 0
213 535 808 0
-262 -577 -843 0
262 577 843 0
-310 -618 -877 0
310 618 877 0
-357 -658 -910 0
357 658 910 0
-403 -697 -942 0
403 697 942 0
-448 -735 -973 0
448 735 973 0
-492 -772 -1003 0
492 772 1003 0
-535 -808 -1032 0
535 808 1032 0
-577 -843 -1060 0
577 843 1060 0
-618 -877 -1087 0
618 877 1087 0
-658 -910 -1113 0
658 910 1113 0
-697 -942 -1138 0
697 942 1138 0
-735 -973 -1162 0
735 973 1162 0
-772 -1003 -1185 0
772 1003 1185 0
-808 -1032 -1207 0
808 1032 1207 0
-843 -1060 -1228 0
843 1060 1228 0
-877 -1087 -1248 0
877 1087 1248 0
-910 -1113 -1267 0
910 1113 1267 0
-942 -1138 -1285 0
942 1138 1285 0
-973 -1162 -1302 0
973 1162 1302 0
-1003 -1185 -1318 0
1003 1185 1318 0
-1032 -1207 -1333 0
1032 1207 1333 0
-1060 -1228 -1347 0
1060 1228 1347 0
-1087 -1248 -1360 0
1087 1248 1360 0
-1113 -1267 -1372 0
1113 1267 1372 0
-1138 -1285 -1383 0
1138 1285 1383 0
-1162 -1302 -1393 0
1162 1302 1393 0
-1185 -1318 -1402 0
1185 1318 1402 0
-1207 -1333 -1410 0
1207 1333 1410 0
-15 -404 -736 0
15 404 736 0
-16 -449 -773 0
16 449 773 0
-113 -493 -809 0
113 493 809 0
-164 -536 -844 0
164 536 844 0
-214 -578 -878 0
214 578 878 0
-263 -619 -911 0
263 619 911 0
-311 -659 -943 0
311 659 943 0
-358 -698 -974 0
358 698 974 0
-404 -736 -1004 0
404 736 1004 0
-449 -773 -1033 0
449 773 1033 0
-493 -809 -1061 0
493 809 1061 0
-536 -844 -1088 0
536 844 1088 0
-578 -878 -1114 0
578 878 1114 0
-619 -911 -1139 0
619 911 1139 0
-659 -943 -1163 0
659 943 1163 0
-698 -974 -1186 0
698 974 1186 0
-736 -1004 -1208 0
736 1004 1208 0
-773 -1033 -1229 0
773 1033 1229 0
-809 -1061 -1249 0
809 1061 1249 0
-844 -1088 -1268 0
844 1088 1268 0
-878 -1114 -1286 0
878 1114 1286 0
-911 -1139 -1303 0
911 1139 1303 0
-943 -1163 -1319 0
943 1163 1319 0
-974 -1186 -1334 0
974 1186 1334 0
-1004 -1208 -1348 0
1004 1208 1348 0
-1033 -1229 -1361 0
1033 1229 1361 0
-1061 -1249 -1373 0
1061 1249 1373 0
-1088 -1268 -1384 0
1088 1268 1384 0
-1114 -1286 -1394 0
1114 1286 1394 0
-1139 -1303 -1403 0
1139 1303 1403 0
-17 -450 -810 0
17 450 810 0
-18 -494 -845 0
18 494 845 0
-114 -537 -879 0
114 537 879 0
-165 -579 -912 0
165 579 912 0
-215 -620 -944 0
215 620 944 0
-264 -660 -975 0
264 660 975 0
-312 -699 -1005 0
312 699 1005 0
-359 -737 -1034 0
359 737 1034 0
-405 -774 -1062 0
405 774 1062 0
-450 -810 -1089 0
450 810 1089 0
-494 -845 -1115 0
494 845 1115 0
-537 -879 -1140 0
537 879 1140 0
-579 -912 -1164 0
579 912 1164 0
-620 -944 -1187 0
620 944 1187 0
-660 -975 -1209 0
660 975 1209 0
-699 -1005 -1230 0
699 1005 1230 0
-737 -1034 -1250 0
737 1034 1250 0
-774 -1062 -1269 0
774 1062 1269 0
-810 -1089 -1287 0
810 1089 1287 0
-845 -1115 -1304 0
845 1115 1304 0
-879 -1140 -1320 0
879 1140 1320 0
-912 -1164 -1335 0
912 1164 1335 0
-944 -1187 -1349 0
944 1187 1349 0
-975 -1209 -1362 0
975 1209 1362 0
-1005 -1230 -1374 0
1005 1230 1374 0
-1034 -1250 -1385 0
1034 1250 1385 0
-1062 -1269 -1395 0
1062 1269 1395 0
-19 -495 -880 0
19 495 880 0
-20 -538 -913 0
20 538 913 0
-115 -580 -945 0
115 580 945 0
-166 -621 -976 0
166 621 976 0
-216 -661 -1006 0
216 661 1006 0
-265 -700 -1035 0
265 700 1035 0
-313 -738 -1063 0
313 738 1063 0
-360 -775 -1090 0
360 775 1090 0
-406 -811 -1116 0
406 811 1116 0
-451 -846 -1141 0
451 846 1141 0
-495 -880 -1165 0
495 880 1165 0
-538 -913 -1188 0
538 913 1188 0
-580 -945 -1210 0
580 945 1210 0
-621 -976 -1231 0
621 976 1231 0
-661 -1006 -1251 0
661 1006 1251 0
-700 -1035 -1270 0
700 1035 1270 0
-738 -1063 -1288 0
738 1063 1288 0
-775 -1090 -1305 0
775 1090 1305 0
-811 -1116 -1321 0
811 1116 1321 0
-846 -1141 -1336 0
846 1141 1336 0
-880 -1165 -1350 0
880 1165 1350 0
-913 -1188 -1363 0
913 1188 1363 0
-945 -1210 -1375 0
945 1210 1375 0
-976 -1231 -1386 0
976 1231 1386 0
-21 -539 -946 0
21 539 946 0
-22 -581 -977 0
22 581 977 0
-116 -622 -1007 0
116 622 1007 0
-167 -662 -1036 0
167 662 1036 0
-217 -701 -1064 0
217 701 1064 0
-266 -739 -1091 0
266 739 1091 0
-314 -776 -1117 0
314 776 1117 0
-361 -812 -1142 0
361 812 1142 0
-407 -847 -1166 0
407 847 1166 0
-452 -881 -1189 0
452 881 1189 0
-496 -914 -1211 0
496 914 1211 0
-539 -946 -1232 0
539 946 1232 0
-581 -977 -1252 0
581 977 1252 0
-622 -1007 -1271 0
622 1007 1271 0
-662 -1036 -1289 0
662 1036 1289 0
-701 -1064 -1306 0
701 1064 1306 0
-739 -1091 -1322 0
739 1091 1322 0
-776 -1117 -1337 0
776 1117 1337 0
-812 -1142 -1351 0
812 1142 1351 0
-847 -1166 -1364 0
847 1166 1364 0
-881 -1189 -1376 0
881 1189 1376 0
-23 -582 -1008 0
23 582 1008 0
-24 -623 -1037 0
24 623 1037 0
-117 -663 -1065 0
117 663 1065 0
-168 -702 -1092 0
168 702 1092 0
-218 -740 -1118 0
218 740 1118 0
-267 -777 -1143 0
267 777 1143 0
-315 -813 -1167 0
315 813 1167 0
-362 -848 -1190 0
362 848 1190 0
-408 -882 -1212 0
408 882 1212 0
-453 -915 -1233 0
453 915 1233 0
-497 -947 -1253 0
497 947 1253 0
-540 -978 -1272 0
540 978 1272 0
-582 -1008 -1290 0
582 1008 1290 0
-623 -1037 -1307 0
623 1037 1307 0
-663 -1065 -1323 0
663 1065 1323 0
-702 -1092 -1338 0
702 1092 1338 0
-740 -1118 -1352 0
740 1118 1352 0
-777 -1143 -1365 0
777 1143 1365 0
-25 -624 -1066 0
25 624 1066 0
-26 -664 -1093 0
26 664 1093 0
-118 -703 -1119 0
118 703 1119 0
-169 -741 -1144 0
169 741 1144 0
-219 -778 -1168 0
219 778 1168 0
-268 -814 -1191 0
268 814 1191 0
-316 -849 -1213 0
316 849 1213 0
-363 -883 -1234 0
363 883 1234 0
-409 -916 -1254 0
409 916 1254 0
-454 -948 -1273 0
454 948 1273 0
-498 -979 -1291 0
498 979 1291 0
-541 -1009 -1308 0
541 1009 1308 0
-583 -1038 -1324 0
583 1038 1324 0
-624 -1066 -1339 0
624 1066 1339 0
-664 -1093 -1353 0
664 1093 1353 0
-27 -665 -1120 0
27 665 1120 0
-28 -704 -1145 0
28 704 1145 0
-119 -742 -1169 0
119 742 1169 0
-170 -779 -1192 0
170 779 1192 0
-220 -815 -1214 0
220 815 1214 0
-269 -850 -1235 0
269 850 1235 0
-317 -884 -1255 0
317 884 1255 0
-364 -917 -1274 0
364 917 1274 0
-410 -949 -1292 0
410 949 1292 0
-455 -980 -1309 0
455 980 1309 0
-499 -1010 -1325 0
499 1010 1325 0
-542 -1039 -1340 0
542 1039 1340 0
-29 -705 -1170 0
29 705 1170 0
-30 -743 -1193 0
30 743 1193 0
-120 -780 -1215 0
120 780 1215 0
-171 -816 -1236 0
171 816 1236 0
-221 -851 -1256 0
221 851 1256 0
-270 -885 -1275 0
270 885 1275 0
-318 -918 -1293 0
318 918 1293 0
-365 -950 -1310 0
365 950 1310 0
-411 -981 -1326 0
411 981 1326 0
-31 -744 -1216 0
31 744 1216 0
-32 -781 -1237 0
32 781 1237 0
-121 -817 -1257 0
121 817 1257 0
-172 -852 -1276 0
172 852 1276 0
-222 -886 -1294 0
222 886 1294 0
-271 -919 -1311 0
271 919 1311 0
-33 -782 -1258 0
33 782 1258 0
-34 -818 -1277 0
34 818 1277 0
-122 -853 -1295 0
122 853 1295 0
-1 -2 0
-1429 -1431 0
-3 -107 0
-4 -158 0
-1418 -1427 0
-1423 -1430 0
-5 -159 0
-6 -209 0
-108 -258 0
-1398 -1419 0
-1406 -1424 0
-1413 -1428 0
-7 -210 0
-8 -259 0
-109 -307 0
-160 -354 0
-1369 -1407 0
-1380 -1414 0
-1390 -1420 0
-1399 -1425 0
-9 -260 0
-10 -308 0
-110 -355 0
-161 -401 0
-211 -446 0
-1331 -1391 0
-1345 -1400 0
-1358 -1408 0
-1370 -1415 0
-1381 -1421 0
-11 -309 0
-12 -356 0
-111 -402 0
-162 -447 0
-212 -491 0
-261 -534 0
-1284 -1371 0
-1301 -1382 0
-1317 -1392 0
-1332 -1401 0
-1346 -1409 0
-1359 -1416 0
-13 -357 0
-14 -403 0
-112 -448 0
-163 -492 0
-213 -535 0
-262 -577 0
-310 -618 0
-1228 -1347 0
-1248 -1360 0
-1267 -1372 0
-1285 -1383 0
-1302 -1393 0
-1318 -1402 0
-1333 -1410 0
-15 -404 0
-16 -449 0
-113 -493 0
-164 -536 0
-214 -578 0
-263 -619 0
-311 -659 0
-358 -698 0
-1163 -1319 0
-1186 -1334 0
-1208 -1348 0
-1229 -1361 0
-1249 -1373 0
-1268 -1384 0
-1286 -1394 0
-1303 -1403 0
-17 -450 0
-18 -494 0
-114 -537 0
-165 -579 0
-215 -620 0
-264 -660 0
-312 -699 0
-359 -737 0
-405 -774 0
-1089 -1287 0
-1115 -1304 0
-1140 -1320 0
-1164 -1335 0
-1187 -1349 0
-1209 -1362 0
-1230 -1374 0
-1250 -1385 0
-1269 -1395 0
-19 -495 0
-20 -538 0
-115 -580 0
-166 -621 0
-216 -661 0
-265 -700 0
-313 -738 0
-360 -775 0
-406 -811 0
-451 -846 0
-1006 -1251 0
-1035 -1270 0
-1063 -1288 0
-1090 -1305 0
-1116 -1321 0
-1141 -1336 0
-1165 -1350 0
-1188 -1363 0
-1210 -1375 0
-1231 -1386 0
-21 -539 0
-22 -581 0
-116 -622 0
-167 -662 0
-217 -701 0
-266 -739 0
-314 -776 0
-361 -812 0
-407 -847 0
-452 -881 0
-496 -914 0
-914 -1211 0
-946 -1232 0
-977 -1252 0
-1007 -1271 0
-1036 -1289 0
-1064 -1306 0
-1091 -1322 0
-1117 -1337 0
-1142 -1351 0
-1166 -1364 0
-1189 -1376 0
-23 -582 0
-24 -623 0
-117 -663 0
-168 -702 0
-218 -740 0
-267 -777 0
-315 -813 0
-362 -848 0
-408 -882 0
-453 -915 0
-497 -947 0
-540 -978 0
-813 -1167 0
-848 -1190 0
-882 -1212 0
-915 -1233 0
-947 -1253 0
-978 -1272 0
-1008 -1290 0
-1037 -1307 0
-1065 -1323 0
-1092 -1338 0
-1118 -1352 0
-1143 -1365 0
-25 -624 0
-26 -664 0
-118 -703 0
-169 -741 0
-219 -778 0
-268 -814 0
-316 -849 0
-363 -883 0
-409 -916 0
-454 -948 0
-498 -979 0
-541 -1009 0
-583 -1038 0
-703 -1119 0
-741 -1144 0
-778 -1168 0
-814 -1191 0
-849 -1213 0
-883 -1234 0
-916 -1254 0
-948 -1273 0
-979 -1291 0
-1009 -1308 0
-1038 -1324 0
-1066 -1339 0
-1093 -1353 0
-27 -665 0
-28 -704 0
-119 -742 0
-170 -779 0
-220 -815 0
-269 -850 0
-317 -884 0
-364 -917 0
-410 -949 0
-455 -980 0
-499 -1010 0
-542 -1039 0
-584 -1067 0
-625 -1094 0
-665 -1120 0
-704 -1145 0
-742 -1169 0
-779 -1192 0
-815 -1214 0
-850 -1235 0
-884 -1255 0
-917 -1274 0
-949 -1292 0
-980 -1309 0
-1010 -1325 0
-1039 -1340 0
-29 -705 0
-30 -743 0
-120 -780 0
-171 -816 0
-221 -851 0
-270 -885 0
-318 -918 0
-365 -950 0
-411 -981 0
-456 -1011 0
-500 -1040 0
-543 -1068 0
-585 -1095 0
-626 -1121 0
-666 -1146 0
-705 -1170 0
-743 -1193 0
-780 -1215 0
-816 -1236 0
-851 -1256 0
-885 -1275 0
-918 -1293 0
-950 -1310 0
-981 -1326 0
-31 -744 0
-32 -781 0
-121 -817 0
-172 -852 0
-222 -886 0
-271 -919 0
-319 -951 0
-366 -982 0
-412 -1012 0
-457 -1041 0
-501 -1069 0
-544 -1096 0
-586 -1122 0
-627 -1147 0
-667 -1171 0
-706 -1194 0
-744 -1216 0
-781 -1237 0
-817 -1257 0
-852 -1276 0
-886 -1294 0
-919 -1311 0
-33 -782 0
-34 -818 0
-122 -853 0
-173 -887 0
-223 -920 0
-272 -952 0
-320 -983 0
-367 -1013 0
-413 -1042 0
-458 -1070 0
-502 -1097 0
-545 -1123 0
-587 -1148 0
-628 -1172 0
-668 -1195 0
-707 -1217 0
-745 -1238 0
-782 -1258 0
-818 -1277 0
-853 -1295 0
-35 -819 0
-36 -854 0
-123 -888 0
-174 -921 0
-224 -953 0
-273 -984 0
-321 -1014 0
-368 -1043 0
-414 -1071 0
-459 -1098 0
-503 -1124 0
-546 -1149 0
-588 -1173 0
-629 -1196 0
-669 -1218 0
-708 -1239 0
-746 -1259 0
-783 -1278 0
-37 -855 0
-38 -889 0
-124 -922 0
-175 -954 0
-225 -985 0
-274 -1015 0
-322 -1044 0
-369 -1072 0
-415 -1099 0
-460 -1125 0
-504 -1150 0
-547 -1174 0
-589 -1197 0
-630 -1219 0
-670 -1240 0
-709 -1260 0
-39 -890 0
-40 -923 0
-125 -955 0
-176 -986 0
-226 -1016 0
-275 -1045 0
-323 -1073 0
-370 -1100 0
-416 -1126 0
-461 -1151 0
-505 -1175 0
-548 -1198 0
-590 -1220 0
-631 -1241 0
-41 -924 0
-42 -956 0
-126 -987 0
-177 -1017 0
-227 -1046 0
-276 -1074 0
-324 -1101 0
-371 -1127 0
-417 -1152 0
-462 -1176 0
-506 -1199 0
-549 -1221 0
-43 -957 0
-44 -988 0
-127 -1018 0
-178 -1047 0
-228 -1075 0
-277 -1102 0
-325 -1128 0
-372 -1153 0
-418 -1177 0
-463 -1200 0
-45 -989 0
-46 -1019 0
-128 -1048 0
-179 -1076 0
-229 -1103 0
-278 -1129 0
-326 -1154 0
-373 -1178 0
-47 -1020 0
-48 -1049 0
-129 -1077 0
-180 -1104 0
-230 -1130 0
-279 -1155 0
-49 -1050 0
-50 -1078 0
-130 -1105 0
-181 -1131 0
-51 -1079 0
-52 -1106 0
-19 0
-20 0
-21 0
-22 0
-116 0
-167 0
-23 0
-24 0
-117 0
-168 0
-218 0
-267 0
-25 0
-26 0
-118 0
-169 0
-219 0
-268 0
-316 0
-363 0
-119 0
-170 0
-220 0
-269 0
-317 0
-364 0
-410 0
-455 0
-221 0
-270 0
-318 0
-365 0
-411 0
-456 0
-500 0
-543 0
-319 0
-366 0
-412 0
-457 0
-501 0
-544 0
-586 0
-627 0
-413 0
-458 0
-502 0
-545 0
-587 0
-628 0
-668 0
-707 0
-503 0
-546 0
-588 0
-629 0
-669 0
-708 0
-746 0
-783 0
-589 0
-630 0
-670 0
-709 0
-747 0
-784 0
-820 0
-671 0
-710 0
-748 0
-785 0
-821 0
-856 0
-591 0
-632 0
-672 0
-711 0
-749 0
-786 0
-822 0
-857 0
-891 0
-507 0
-550 0
-592 0
-633 0
-673 0
-712 0
-750 0
-787 0
-823 0
-858 0
-892 0
-925 0
-419 0
-464 0
-508 0
-551 0
-593 0
-634 0
-674 0
-713 0
-751 0
-788 0
-824 0
-859 0
-893 0
-926 0
-958 0
-327 0
-374 0
-420 0
-465 0
-509 0
-552 0
-594 0
-635 0
-675 0
-714 0
-752 0
-789 0
-825 0
-860 0
-894 0
-927 0
-959 0
-990 0
-231 0
-280 0
-328 0
-375 0
-421 0
-466 0
-510 0
-553 0
-595 0
-636 0
-676 0
-715 0
-753 0
-790 0
-826 0
-861 0
-895 0
-928 0
-960 0
-991 0
-1021 0
-131 0
-182 0
-232 0
-281 0
-329 0
-376 0
-422 0
-467 0
-511 0
-554 0
-596 0
-637 0
-677 0
-716 0
-754 0
-791 0
-827 0
-862 0
-896 0
-929 0
-961 0
-992 0
-1022 0
-1051 0
-54 0
-132 0
-183 0
-233 0
-282 0
-330 0
-377 0
-423 0
-468 0
-512 0
-555 0
-597 0
-638 0
-678 0
-717 0
-755 0
-792 0
-828 0
-863 0
-897 0
-930 0
-962 0
-993 0
-1023 0
-1052 0
-1080 0
-133 0
-184 0
-234 0
-283 0
-331 0
-378 0
-424 0
-469 0
-513 0
-556 0
-598 0
-639 0
-679 0
-718 0
-756 0
-793 0
-829 0
-864 0
-898 0
-931 0
-963 0
-994 0
-1024 0
-1053 0
-185 0
-235 0
-284 0
-332 0
-379 0
-425 0
-470 0
-514 0
-557 0
-599 0
-640 0
-680 0
-719 0
-757 0
-794 0
-830 0
-865 0
-899 0
-932 0
-964 0
-995 0
-1025 0
-236 0
-285 0
-333 0
-380 0
-426 0
-471 0
-515 0
-558 0
-600 0
-641 0
-681 0
-720 0
-758 0
-795 0
-831 0
-866 0
-900 0
-933 0
-965 0
-996 0
-286 0
-334 0
-381 0
-427 0
-472 0
-516 0
-559 0
-601 0
-642 0
-682 0
-721 0
-759 0
-796 0
-832 0
-867 0
-901 0
-934 0
-966 0
-335 0
-382 0
-428 0
-473 0
-517 0
-560 0
-602 0
-643 0
-683 0
-722 0
-760 0
-797 0
-833 0
-868 0
-902 0
-935 0
-383 0
-429 0
-474 0
-518 0
-561 0
-603 0
-644 0
-684 0
-723 0
-761 0
-798 0
-834 0
-869 0
-903 0
-430 0
-475 0
-519 0
-562 0
-604 0
-645 0
-685 0
-724 0
-762 0
-799 0
-835 0
-870 0
-476 0
-520 0
-563 0
-605 0
-646 0
-686 0
-725 0
-763 0
-800 0
-836 0
-521 0
-564 0
-606 0
-647 0
-687 0
-726 0
-764 0
-801 0
-565 0
-607 0
-648 0
-688 0
-727 0
-765 0
-608 0
-649 0
-689 0
-728 0
-650 0
-690 0
